# vtk DataFile Version 2.0
Exported by GetFEM
ASCII
DATASET UNSTRUCTURED_GRID
POINTS 9432 float
 -0.555486 10 -10.9621 -1.31574 10 -9.91306 -6.36971e-08 10 -10 -0.607406 9.78564 -11.0521 -1.12604 9.58403 -11.9504 -1.86529 10 -10.7875 -1.14112 9.16806 -11.9765 -2.61962 10 -9.65078 -1.11097 10 -11.9243
 9.77123 10 5 9.24284 10 3.81706 8.66025 10 5 9.87507 9.78564 5 10.9123 9.58403 5 10.2749 10 3.77837 10.9425 9.16806 5 9.66763 10 2.55674 10.8822 10 5
 -9.21574 10 5.96213 -7.92709 10 6.096 -8.66025 10 5 -9.26766 9.78564 6.05206 -9.7863 9.58403 6.95036 -8.40962 10 7.00915 -9.80137 9.16806 6.97647 -7.04802 10 7.09405 -9.77123 10 6.92426
 -0.5557 10 10.9625 -1.86551 10 10.7879 -1.1114 10 11.925 -1.12697 9.58281 11.952 -0.608289 9.78499 11.0536 -1.31574 10 9.91306 -1.14254 9.16563 11.9789 -2.61962 10 9.65078 -6.36971e-08 10 10
 -9.21595 10 -5.9625 -8.40983 10 -7.00952 -9.77165 10 -6.925 -9.78723 9.58281 -6.95197 -9.26854 9.78499 -6.05359 -7.92709 10 -6.096 -9.8028 9.16563 -6.97894 -7.04802 10 -7.09405 -8.66025 10 -5
 9.77165 10 -5 10.2753 10 -3.77837 10.8831 10 -5 10.9142 9.58281 -5 9.87683 9.78499 -5 9.24284 10 -3.81706 10.9453 9.16563 -5 9.66763 10 -2.55674 8.66025 10 -5
 -1.14112 9.16806 -11.9765 -1.7081 9.58403 -12.9585 -1.12604 9.58403 -11.9504 -1.69303 10 -12.9324 -2.949 10 -12.8794 -2.36694 10 -11.8712 -2.27509 10 -13.9406 -3.62291 10 -11.8182 -1.11097 10 -11.9243
 10.9425 9.16806 5 12.0765 9.58403 5 10.9123 9.58403 5 12.0463 10 5 12.6284 10 3.88578 11.4643 10 3.88578 13.2104 10 5 12.0463 10 2.77157 10.8822 10 5
 -9.80137 9.16806 6.97647 -10.3684 9.58403 7.95852 -9.7863 9.58403 6.95036 -10.3533 10 7.93242 -9.67938 10 8.9936 -9.09732 10 7.98544 -10.9353 10 8.94057 -8.42341 10 9.04663 -9.77123 10 6.92426
 -1.1114 10 11.925 -2.36744 10 11.872 -1.69349 10 12.9332 -1.12697 9.58281 11.952 -1.70907 9.58281 12.9602 -2.94953 10 12.8802 -2.27559 10 13.9414 -3.62348 10 11.8189 -1.14254 9.16563 11.9789
 -9.77165 10 -6.925 -9.09771 10 -7.98625 -10.3537 10 -7.93322 -9.78723 9.58281 -6.95197 -10.3693 9.58281 -7.96019 -9.6798 10 -8.99446 -10.9358 10 -8.94143 -8.42376 10 -9.04749 -9.8028 9.16563 -6.97894
 10.8831 10 -5 11.4651 10 -3.88572 12.0472 10 -5 10.9142 9.58281 -5 12.0784 9.58281 -5 12.6293 10 -3.88572 13.2114 10 -5 12.0472 10 -2.77144 10.9453 9.16563 -5
 -2.36694 10 -11.8712 -3.12126 10 -10.7345 -1.86529 10 -10.7875 -3.62291 10 -11.8182 -2.61962 10 -9.65078 -1.11097 10 -11.9243
 11.4643 10 3.88578 10.857 10 2.66415 10.2749 10 3.77837 12.0463 10 2.77157 9.66763 10 2.55674 10.8822 10 5
 -9.09732 10 7.98544 -7.73571 10 8.07034 -8.40962 10 7.00915 -8.42341 10 9.04663 -7.04802 10 7.09405 -9.77123 10 6.92426
 -1.1114 10 11.925 -1.86551 10 10.7879 -2.36744 10 11.872 -3.12155 10 10.7349 -3.62348 10 11.8189 -2.61962 10 9.65078
 -9.77165 10 -6.925 -8.40983 10 -7.00952 -9.09771 10 -7.98625 -7.73589 10 -8.07077 -8.42376 10 -9.04749 -7.04802 10 -7.09405
 10.8831 10 -5 10.2753 10 -3.77837 11.4651 10 -3.88572 10.8574 10 -2.66409 12.0472 10 -2.77144 9.66763 10 -2.55674
 40.1464 2.94 -5 39.0514 2.51537 -5 39.4889 3.57001 -5 38.3939 3.14538 -5 37.9564 2.09073 -5 38.8314 4.20002 -5
 40.1464 2.94 -5 39.4889 3.57001 -5 40.5942 3.99103 -5 39.9367 4.62104 -5 38.8314 4.20002 -5 41.0421 5.04206 -5
 -15.1488 4.13841 -36.2384 -15.4817 3.46495 -36.815 -15.6698 4.59023 -37.1409 -16.0027 3.91678 -37.7175 -15.8145 2.7915 -37.3916 -16.1909 5.04206 -38.0435
 -15.8145 2.7915 37.3916 -15.4816 3.46495 36.815 -16.0027 3.91678 37.7175 -15.6698 4.59023 37.1409 -15.1488 4.13841 36.2384 -16.1909 5.04206 38.0435
 -23.7742 4.0403 31.1781 -24.1315 3.44569 31.7969 -24.3127 4.54118 32.1108 -24.6699 3.94657 32.7296 -24.4887 2.85109 32.4157 -24.8512 5.04206 33.0435
 -24.4887 2.85109 -32.4157 -24.1315 3.44569 -31.7969 -24.6699 3.94657 -32.7296 -24.3127 4.54118 -32.1108 -23.7742 4.0403 -31.1781 -24.8512 5.04206 -33.0435
 38.8512 4.31551 5 39.4458 3.60147 5 39.9466 4.67878 5 40.5412 3.96475 5 40.0404 2.88744 5 41.0421 5.04206 5
 3.55154 4.78487 -12.5055 2.56601 4.86036 -12.7442 3.09804 5.89243 -12.6255 2.10053 5.96793 -12.8292 1.55699 4.93585 -12.9064 2.63635 7 -12.7182
 -12.6058 4.78487 3.17701 -12.3198 4.86036 4.14988 -12.483 5.89243 3.62975 -12.1607 5.96793 4.59547 -11.9558 4.93585 5.10482 -12.3324 7 4.07594
 2.63489 7 12.7185 2.09889 5.96808 12.8294 3.09681 5.89248 12.6258 2.56484 4.86055 12.7445 1.55541 4.93615 12.9066 3.55077 4.78495 12.5057
 -12.332 7 -4.07735 -12.1601 5.96808 -4.59703 -12.4826 5.89248 -3.63096 -12.3195 4.86055 -4.15102 -11.9552 4.93615 -5.10629 -12.6056 4.78495 -3.17778
 9.05314 4.78457 9.32956 9.75286 4.85955 8.59545 9.3837 5.89229 8.99701 10.0591 5.96726 8.23501 10.398 4.93452 7.80267 9.69483 7 8.64363
 9.69583 7 -8.64252 10.0599 5.96682 -8.23399 9.38429 5.89223 -8.99639 9.75359 4.85905 -8.59462 10.3989 4.93363 -7.80143 9.05361 4.78446 -9.3291
 0.456741 7 12.9854 1.00776 5.96808 12.9609 1.54631 7 12.8974 2.09889 5.96808 12.8294 1.55541 4.93615 12.9066 2.63489 7 12.7185
 -11.4741 7 -6.09717 -11.7283 5.96808 -5.6077 -11.9427 7 -5.10957 -12.1601 5.96808 -4.59703 -11.9552 4.93615 -5.10629 -12.332 7 -4.07735
 2.63635 7 -12.7182 2.10053 5.96793 -12.8292 1.54783 7 -12.8972 1.00927 5.96793 -12.9608 1.55699 4.93585 -12.9064 0.458283 7 -12.9854
 -12.3324 7 4.07594 -12.1607 5.96793 4.59547 -11.9433 7 5.10817 -11.729 5.96793 5.60633 -11.9558 4.93585 5.10482 -11.4748 7 6.09581
 9.69483 7 8.64363 10.0591 5.96726 8.23501 10.3946 7 7.79021 10.7192 5.96726 7.35524 10.398 4.93452 7.80267 11.016 7 6.89038
 11.0169 7 -6.88907 10.7202 5.96682 -7.35377 10.3955 7 -7.78899 10.0599 5.96682 -8.23399 10.3989 4.93363 -7.80143 9.69583 7 -8.64252
 -12.8359 7 2.02 -12.7375 5.89243 2.59939 -12.6264 7 3.05279 -12.483 5.89243 3.62975 -12.6058 4.78487 3.17701 -12.3324 7 4.07594
 4.66859 7 -12.1262 4.11759 5.89243 -12.3307 3.66938 7 -12.4611 3.09804 5.89243 -12.6255 3.55154 4.78487 -12.5055 2.63635 7 -12.7182
 -12.332 7 -4.07735 -12.4826 5.89248 -3.63096 -12.6261 7 -3.05385 -12.7373 5.89248 -2.60017 -12.6056 4.78495 -3.17778 -12.8358 7 -2.02067
 2.63489 7 12.7185 3.09681 5.89248 12.6258 3.66834 7 12.4614 4.11685 5.89248 12.3309 3.55077 4.78495 12.5057 4.66796 7 12.1265
 8.16502 7 10.1081 8.61813 5.89229 9.73282 8.95521 7 9.41004 9.3837 5.89229 8.99701 9.05314 4.78457 9.32956 9.69483 7 8.64363
 9.69583 7 -8.64252 9.38429 5.89223 -8.99639 8.95599 7 -9.40928 8.61867 5.89223 -9.73234 9.05361 4.78446 -9.3291 8.16555 7 -10.1077
 -3.50203 10 -16.0657 -4.58558 10 -16.0333 -4.2123 10 -14.9472 -5.29585 10 -14.9148 -5.66914 10 -16.0009 -4.92257 10 -13.8288
 -12.1623 10 11.0657 -11.5925 10 11.9879 -10.8385 10 11.1216 -10.2687 10 12.0438 -11.0226 10 12.9101 -9.5148 10 11.1775
 15.6643 10 5 16.178 10 4.04542 15.0508 10 3.82566 15.5646 10 2.87108 16.6918 10 3.09084 14.4374 10 2.65133
 -23.7742 4.0403 31.1781 -23.5462 2.81249 30.7832 -24.1315 3.44569 31.7969 -23.9034 2.21789 31.402 -23.3182 1.58469 30.3882 -24.4887 2.85109 32.4157
 -24.4887 2.85109 -32.4157 -23.9035 2.21789 -31.402 -24.1315 3.44569 -31.7969 -23.5462 2.81249 -30.7832 -23.3182 1.58469 -30.3882 -23.7742 4.0403 -31.1781
 38.8512 4.31551 5 38.2181 3.14397 5 39.4458 3.60147 5 38.8127 2.42994 5 37.585 1.97244 5 40.0404 2.88744 5
 -4.15041 10 -17.1887 -4.51237 8.97672 -17.8157 -4.79879 10 -18.3117 -5.23396 10 -17.1563 -4.58558 10 -16.0333 -3.86399 8.97672 -16.6926 -5.66914 10 -16.0009 -4.22595 7.95344 -17.3196 -3.50203 10 -16.0657
 16.9611 10 5 17.685 8.97672 5 18.2578 10 5 17.4748 10 4.04542 16.178 10 4.04542 16.3882 8.97672 5 16.6918 10 3.09084 17.1121 7.95344 5 15.6643 10 5
 -12.8107 10 12.1887 -13.1726 8.97672 12.8157 -13.459 10 13.3117 -12.2408 10 13.1109 -11.5925 10 11.9879 -12.5242 8.97672 11.6926 -11.0226 10 12.9101 -12.8862 7.95344 12.3196 -12.1623 10 11.0657
 -15.1488 4.13841 -36.2384 -14.9033 2.86155 -35.8133 -15.4817 3.46495 -36.815 -15.2362 2.1881 -36.3899 -14.6579 1.58469 -35.3882 -15.8145 2.7915 -37.3916
 -15.8145 2.7915 37.3916 -15.2362 2.1881 36.3899 -15.4816 3.46495 36.815 -14.9033 2.86155 35.8133 -14.6579 1.58469 35.3882 -15.1488 4.13841 36.2384
 7.32952 0 -10.7344 5.75 0 -9.95929 6.5 0 -11.2583 6.5 1.13303 -11.2583 7.33477 1.13303 -10.7332 6.548 0 -9.41738 6.5 2.26607 -11.2583 5 0 -8.66025 8.13697 0 -10.1309
 7.32952 0 10.7344 6.549 0 9.41563 8.13697 0 10.1309 7.33477 1.13303 10.7332 6.5 1.13303 11.2583 5.75 0 9.95929 6.5 2.26607 11.2583 5 0 8.66025 6.5 0 11.2583
 5.63021 0 -11.7154 4.87834 0 -10.3799 4.70235 0 -12.1133 5.62646 1.13303 -11.7193 6.5 1.13303 -11.2583 5.75 0 -9.95929 6.5 2.26607 -11.2583 5 0 -8.66025 6.5 0 -11.2583
 -12.9609 0 -0.98179 -11.5 0 -4.17006e-15 -13 0 -4.87067e-15 -13 1.13303 -4.87067e-15 -12.9625 1.13303 -0.987013 -11.4295 0 -0.963449 -13 2.26607 -4.87067e-15 -10 0 -3.46945e-15 -12.8416 0 -1.98432
 -12.9609 0 0.98179 -11.4285 0 0.965198 -12.8416 0 1.98432 -12.9625 1.13303 0.987013 -13 1.13303 -4.87067e-15 -11.5 0 -4.17006e-15 -13 2.26607 -4.87067e-15 -10 0 -3.46945e-15 -13 0 -4.87067e-15
 5.63021 0 11.7154 5.75 0 9.95929 6.5 0 11.2583 6.5 1.13303 11.2583 5.62646 1.13303 11.7193 4.88037 0 10.3799 6.5 2.26607 11.2583 5 0 8.66025 4.70235 0 12.1133
 8.16502 7 10.1081 7.2354 8.14132 10.4773 7.34406 7 10.7244 6.39364 8.10956 11.0741 6.05647 9.12967 10.4901 6.5 7 11.2583
 6.5 7 -11.2583 6.39364 8.10956 -11.0741 7.34433 7 -10.7242 7.23657 8.14161 -10.4763 6.05647 9.12967 -10.4901 8.16555 7 -10.1077
 -12.8359 7 2.02 -12.6911 8.14148 1.02892 -12.9595 7 0.999387 -12.7873 8.10956 -4.80917e-15 -12.1129 9.12967 -4.5088e-15 -13 7 -4.87067e-15
 4.66859 7 -12.1262 5.45449 8.14148 -11.5053 5.61426 7 -11.723 6.39364 8.10956 -11.0741 6.05647 9.12967 -10.4901 6.5 7 -11.2583
 -13 7 -4.87067e-15 -12.7873 8.10956 -4.80917e-15 -12.9595 7 -0.999719 -12.6909 8.14178 -1.03042 -12.1129 9.12967 -4.5088e-15 -12.8358 7 -2.02067
 6.5 7 11.2583 6.39364 8.10956 11.0741 5.61396 7 11.7231 5.45306 8.14178 11.5058 6.05647 9.12967 10.4901 4.66796 7 12.1265
 6.06542 13 3.49438 4.40811 13 3.25871 5.35366 13 4.5098 6.20571 12.1618 3.51497 6.69913 12.1296 2.46385 5.02759 13 2.18353 7.09781 11.2605 2.6682 3.4641 13 2 6.5868 13 2.36939
 -0.00648884 13 -7 0.618077 13 -5.44689 1.22877 13 -6.89131 -0.0588102 12.1618 -7.13179 -1.21582 12.1296 -7.03354 -0.622797 13 -5.44578 -1.2382 11.2605 -7.48098 -4.43469e-10 13 -4 -1.24145 13 -6.88904
 -6.05893 13 3.50562 -5.02618 13 2.18817 -6.58243 13 2.38151 -6.1469 12.1618 3.61682 -5.48331 12.1296 4.5697 -4.40479 13 3.26225 -5.85962 11.2605 4.8128 -3.4641 13 2 -5.34536 13 4.51964
 6.06542 13 -3.49438 5.02365 13 -2.19049 6.5868 13 -2.36939 6.7001 12.1292 -2.46156 6.20368 12.1599 -3.51979 4.41298 13 -3.25043 7.10002 11.2591 -2.66516 3.4641 13 -2 5.35366 13 -4.5098
 -0.00648884 13 7 -0.6148 13 5.44585 -1.24145 13 6.88904 -1.21829 12.1292 7.03323 -0.0536171 12.1599 7.13244 0.608466 13 5.44697 -1.24193 11.2591 7.48138 -4.43472e-10 13 4 1.22877 13 6.89131
 -6.05893 13 -3.50562 -4.40885 13 -3.25536 -5.34536 13 -4.51964 -5.48182 12.1292 -4.57169 -6.15006 12.1599 -3.61265 -5.02144 13 -2.19654 -5.8581 11.2591 -4.81624 -3.4641 13 -2 -6.58243 13 -2.38151
 -1.66987 7 12.8923 -0.623643 7 12.9828 -1.52487 8.1968 12.6412 -0.357247 8.12108 12.7573 0.456741 7 12.9854 -1.14254 9.16563 11.9789
 -10.3301 7 -7.8923 -10.9317 7 -7.03152 -10.1851 8.1968 -7.64115 -10.8695 8.12108 -6.68802 -11.4741 7 -6.09717 -9.8028 9.16563 -6.97894
 12 7 -5 11.5551 7 -5.95174 11.71 8.1968 -5 11.2267 8.12105 -6.06928 11.0169 7 -6.88907 10.9453 9.16563 -5
 10.3989 4.93363 -7.80143 10.4844 3.81673 -7.68622 9.75359 4.85905 -8.59462 9.84726 3.74215 -8.48714 10.5686 2.69983 -7.57 9.05361 4.78446 -9.3291
 10.5684 2.69961 7.57029 10.4838 3.81706 7.68699 9.84692 3.74209 8.48753 9.75286 4.85955 8.59545 10.398 4.93452 7.80267 9.05314 4.78457 9.32956
 1.27036 2.69983 -12.9378 1.41381 3.81784 -12.9229 2.42543 3.74235 -12.7717 2.56601 4.86036 -12.7442 1.55699 4.93585 -12.9064 3.55154 4.78487 -12.5055
 -11.8396 2.69983 5.36872 -11.8985 3.81784 5.23705 -12.2734 3.74235 4.28539 -12.3198 4.86036 4.14988 -11.9558 4.93585 5.10482 -12.6058 4.78487 3.17701
 1.55541 4.93615 12.9066 1.41281 3.81814 12.923 2.56484 4.86055 12.7445 2.42483 3.74254 12.7719 1.26995 2.70013 12.9378 3.55077 4.78495 12.5057
 -11.9552 4.93615 -5.10629 -11.8981 3.81814 -5.23797 -12.3195 4.86055 -4.15102 -12.2732 3.74254 -4.28596 -11.8395 2.70013 -5.3691 -12.6056 4.78495 -3.17778
 -9.80137 9.16806 6.97647 -10.8689 8.12287 6.68757 -10.1847 8.19848 7.64042 -10.9321 7 7.03088 -11.4748 7 6.09581 -10.3301 7 7.8923
 -1.14112 9.16806 -11.9765 -0.357172 8.12287 -12.7565 -1.52445 8.19848 -12.6404 -0.62289 7 -12.9829 0.458283 7 -12.9854 -1.66987 7 -12.8923
 10.9425 9.16806 5 11.2257 8.12287 6.06951 11.7092 8.19848 5 11.5547 7 5.95241 11.016 7 6.89038 12 7 5
 -5.34536 13 -4.51964 -4.47515 13 -5.38266 -5.48182 12.1292 -4.57169 -4.6977 12.054 -5.40133 -3.5 13 -6.06218 -5.8581 11.2591 -4.81624
 6.5868 13 -2.36939 6.8991 13 -1.18426 6.7001 12.1292 -2.46156 7.02654 12.054 -1.36767 7 13 -3.67382e-16 7.10002 11.2591 -2.66516
 -1.2382 11.2605 -7.48098 -2.32025 12.054 -6.77198 -1.21582 12.1296 -7.03354 -2.42395 13 -6.56692 -3.5 13 -6.06218 -1.24145 13 -6.88904
 -1.24145 13 6.88904 -2.42395 13 6.56692 -1.21829 12.1292 7.03323 -2.32884 12.054 6.76899 -3.5 13 6.06218 -1.24193 11.2591 7.48138
 -5.85962 11.2605 4.8128 -4.70458 12.054 5.39539 -5.48331 12.1296 4.5697 -4.47515 13 5.38266 -3.5 13 6.06218 -5.34536 13 4.51964
 7.09781 11.2605 2.6682 7.02483 12.054 1.3766 6.69913 12.1296 2.46385 6.8991 13 1.18426 7 13 -3.67382e-16 6.5868 13 2.36939
 1.40866 9.19455 11.8967 2.66216 9.23766 11.6194 2.0386 9.83577 10.7232 3.23426 9.80709 10.4947 3.87838 9.22197 11.2795 2.63145 10 9.64134
 -11.0072 9.19455 -4.72843 -11.3937 9.23766 -3.50419 -10.3059 9.83577 -3.59612 -10.7058 9.80709 -2.44638 -11.7075 9.22197 -2.28096 -9.66537 10 -2.54177
 9.59793 9.19457 -7.16906 8.7308 9.23761 -8.11608 8.26637 9.8358 -7.12797 7.47049 9.80706 -8.04932 7.82814 9.22185 -8.99953 7.03331 10 -7.10018
 -9.66537 10 2.54177 -10.7058 9.8071 2.44614 -10.3067 9.83561 3.59494 -11.3941 9.23761 3.50313 -11.7081 9.22169 2.27938 -11.0072 9.19466 4.72812
 2.63145 10 -9.64134 3.23448 9.8071 -10.4946 2.04005 9.83561 -10.7233 2.66326 9.23761 -11.6192 3.88006 9.22169 -11.2792 1.40893 9.19466 -11.8966
 7.03331 10 7.10018 7.47033 9.80708 8.04943 8.26575 9.83564 7.12933 8.73008 9.23756 8.11692 7.82715 9.22158 9.00077 9.59762 9.19468 7.16928
 0.456741 7 12.9854 1.54631 7 12.8974 0.919676 8.14048 12.7161 2.06109 8.09821 12.5965 2.63489 7 12.7185 1.40866 9.19455 11.8967
 -11.4741 7 -6.09717 -11.9427 7 -5.10957 -11.4723 8.14048 -5.56159 -11.9395 8.09821 -4.5133 -12.332 7 -4.07735 -11.0072 9.19455 -4.72843
 1.40893 9.19466 -11.8966 2.06139 8.09844 -12.5964 0.921035 8.14029 -12.7161 1.54783 7 -12.8972 2.63635 7 -12.7182 0.458283 7 -12.9854
 -11.0072 9.19466 4.72812 -11.9395 8.09844 4.51297 -11.473 8.14029 5.56041 -11.9433 7 5.10817 -12.3324 7 4.07594 -11.4748 7 6.09581
 11.0169 7 -6.88907 10.3955 7 -7.78899 10.5523 8.14048 -7.15493 9.87716 8.0982 -8.08469 9.69583 7 -8.64252 9.59793 9.19457 -7.16906
 9.59762 9.19468 7.16928 9.87708 8.09842 8.08463 10.5513 8.14031 7.15666 10.3946 7 7.79021 9.69483 7 8.64363 11.016 7 6.89038
 -8.66025 10 5 -9.83246 9.81282 4.90666 -9.26766 9.78564 6.05206 -10.4335 9.21202 5.87063 -11.0072 9.19466 4.72812 -9.80137 9.16806 6.97647
 -6.36971e-08 10 -10 0.666942 9.81282 -10.9685 -0.607406 9.78564 -11.0521 0.132648 9.21202 -11.971 1.40893 9.19466 -11.8966 -1.14112 9.16806 -11.9765
 8.66025 10 5 9.16522 9.81283 6.06224 9.87507 9.78564 5 10.3006 9.21205 6.10081 9.59762 9.19468 7.16928 10.9425 9.16806 5
 -12.6348 0 3.01826 -11.0802 0 2.99368 -12.3433 0 4.04307 -12.5889 1.19948 3.24359 -12.8108 1.19948 2.20975 -11.3221 0 1.97751 -12.7701 2.39896 2.43402 -9.8042 0 1.96918 -12.8416 0 1.98432
 3.70349 0 -12.4511 2.9475 0 -11.0926 2.67023 0 -12.7111 3.4854 1.19948 -12.5241 4.49171 1.19948 -12.1994 3.94849 0 -10.794 4.27713 2.39896 -12.2762 3.19674 0 -9.47528 4.70235 0 -12.1133
 -12.6348 0 -3.01826 -11.3218 0 -1.97812 -12.8416 0 -1.98432 -12.8108 1.19951 -2.20985 -12.5888 1.19951 -3.24368 -11.081 0 -2.99219 -12.7701 2.39902 -2.43422 -9.8042 0 -1.96918 -12.3433 0 -4.04307
 3.70349 0 12.4511 3.94779 0 10.794 4.70235 0 12.1133 4.49161 1.19951 12.1994 3.4853 1.19951 12.5241 2.94921 0 11.0926 4.27694 2.39902 12.2763 3.19674 0 9.47528 2.67023 0 12.7111
 8.9295 0 -9.43457 7.37283 0 -8.81683 8.13697 0 -10.1309 8.31746 1.19945 -9.99099 9.10222 1.19945 -9.28168 8.13123 0 -8.10103 8.49205 2.39889 -9.84302 6.60746 0 -7.50609 9.6718 0 -8.66942
 8.9295 0 9.43457 8.1321 0 8.09956 9.6718 0 8.66942 9.10216 1.19944 9.28174 8.3174 1.19944 9.99104 7.37247 0 8.81743 8.49192 2.39887 9.84313 6.60746 0 7.50609 8.13697 0 10.1309
 -9.8028 9.16563 -6.97894 -10.4342 9.21078 -5.87228 -9.26854 9.78499 -6.05359 -9.83322 9.81266 -4.90609 -11.0072 9.19455 -4.72843 -8.66025 10 -5
 -1.14254 9.16563 11.9789 0.13155 9.21078 11.9724 -0.608289 9.78499 11.0536 0.66781 9.81266 10.9689 1.40866 9.19455 11.8967 -6.36971e-08 10 10
 10.9453 9.16563 -5 10.3024 9.21082 -6.10053 9.87683 9.78499 -5 9.16513 9.81266 -6.06315 9.59793 9.19457 -7.16906 8.66025 10 -5
 6.5 7 11.2583 6.5 5.8215 11.2583 7.34406 7 10.7244 7.34923 5.8215 10.7233 6.5 4.64299 11.2583 8.16502 7 10.1081
 8.16555 7 -10.1077 7.34954 5.8215 -10.7231 7.34433 7 -10.7242 6.5 5.8215 -11.2583 6.5 4.64299 -11.2583 6.5 7 -11.2583
 -13 7 -4.87067e-15 -13 5.8215 -4.87067e-15 -12.9595 7 0.999387 -12.9611 5.8215 1.00448 -13 4.64299 -4.87067e-15 -12.8359 7 2.02
 6.5 7 -11.2583 6.5 5.8215 -11.2583 5.61426 7 -11.723 5.61066 5.8215 -11.7269 6.5 4.64299 -11.2583 4.66859 7 -12.1262
 -12.8358 7 -2.02067 -12.9611 5.8215 -1.00486 -12.9595 7 -0.999719 -13 5.8215 -4.87067e-15 -13 4.64299 -4.87067e-15 -13 7 -4.87067e-15
 4.66796 7 12.1265 5.61032 5.8215 11.7271 5.61396 7 11.7231 6.5 5.8215 11.2583 6.5 4.64299 11.2583 6.5 7 11.2583
 15.6643 10 5 15.1512 8.4091 5 16.3882 8.97672 5 15.8751 7.38582 5 17.1121 7.95344 5 14.638 6.8182 5
 -3.50203 10 -16.0657 -3.24545 8.4091 -15.6213 -3.86399 8.97672 -16.6926 -3.60741 7.38582 -16.2482 -4.22595 7.95344 -17.3196 -2.98887 6.8182 -15.1769
 -12.1623 10 11.0657 -11.9057 8.4091 10.6213 -12.5242 8.97672 11.6926 -12.2677 7.38582 11.2482 -12.8862 7.95344 12.3196 -11.6491 6.8182 10.1769
 -1.0529 13 -3.85894 -1.65377 13 -5.16936 -2 13 -3.4641 -2 11.8274 -3.4641 -1.0529 11.8274 -3.85894 -0.622797 13 -5.44578 -2 10.6548 -3.4641 -1.24145 13 -6.88904 -4.43469e-10 13 -4
 2.81549 13 -2.84131 3.64455 13 -4.02805 2 13 -3.4641 2 11.8274 -3.4641 2.81549 11.8274 -2.84131 4.41298 13 -3.25043 2 10.6548 -3.4641 5.35366 13 -4.5098 3.4641 13 -2
 -3.86839 13 -1.01763 -5.31067 13 -1.14224 -4 13 -1.37574e-15 -4 11.8274 -1.37574e-15 -3.86839 11.8274 -1.01763 -5.02144 13 -2.19654 -4 10.6548 -1.37574e-15 -6.58243 13 -2.38151 -3.4641 13 -2
 3.86839 13 1.01763 5.30369 13 1.15247 4 13 0 4 11.8274 0 3.86839 11.8274 1.01763 5.02759 13 2.18353 4 10.6548 0 6.5868 13 2.36939 3.4641 13 2
 -2.81549 13 2.84131 -3.64991 13 4.01689 -2 13 3.4641 -2 11.8274 3.4641 -2.81549 11.8274 2.84131 -4.40479 13 3.26225 -2 10.6548 3.4641 -5.34536 13 4.51964 -3.4641 13 2
 1.0529 13 3.85894 1.66612 13 5.1703 2 13 3.4641 2 11.8274 3.4641 1.0529 11.8274 3.85894 0.608466 13 5.44697 2 10.6548 3.4641 1.22877 13 6.89131 -4.43472e-10 13 4
 3.86839 13 -1.01763 5.02365 13 -2.19049 3.4641 13 -2 3.86839 11.8274 -1.01763 4 11.8274 0 5.31268 13 -1.13652 4 10.6548 0 6.5868 13 -2.36939 4 13 0
 -2.81549 13 -2.84131 -4.40885 13 -3.25536 -3.4641 13 -2 -2.81549 11.8274 -2.84131 -2 11.8274 -3.4641 -3.64059 13 -4.03265 -2 10.6548 -3.4641 -5.34536 13 -4.51964 -2 13 -3.4641
 1.0529 13 -3.85894 0.618077 13 -5.44689 -4.43469e-10 13 -4 1.0529 11.8274 -3.85894 2 11.8274 -3.4641 1.65408 13 -5.17042 2 10.6548 -3.4641 1.22877 13 -6.89131 2 13 -3.4641
 -1.0529 13 3.85894 -0.6148 13 5.44585 -4.43472e-10 13 4 -1.0529 11.8274 3.85894 -2 11.8274 3.4641 -1.67208 13 5.16917 -2 10.6548 3.4641 -1.24145 13 6.88904 -2 13 3.4641
 2.81549 13 2.84131 4.40811 13 3.25871 3.4641 13 2 2.81549 11.8274 2.84131 2 11.8274 3.4641 3.65068 13 4.01769 2 10.6548 3.4641 5.35366 13 4.5098 2 13 3.4641
 -3.86839 13 1.01763 -5.02618 13 2.18817 -3.4641 13 2 -3.86839 11.8274 1.01763 -4 11.8274 -1.37574e-15 -5.30476 13 1.15274 -4 10.6548 -1.37574e-15 -6.58243 13 2.38151 -4 13 -1.37574e-15
 2.63635 7 -12.7182 3.3072 8.19982 -12.2752 3.66938 7 -12.4611 4.36603 8.10934 -11.9806 3.88006 9.22169 -11.2792 4.66859 7 -12.1262
 -12.3324 7 4.07594 -12.2843 8.19982 3.2735 -12.6264 7 3.05279 -12.5585 8.10934 2.20922 -11.7081 9.22169 2.27938 -12.8359 7 2.02
 9.69483 7 8.64363 8.97588 8.19974 9.00298 8.95521 7 9.41004 8.19083 8.10919 9.77291 7.82715 9.22158 9.00077 8.16502 7 10.1081
 -12.8358 7 -2.02067 -12.5584 8.10941 -2.21016 -12.6261 7 -3.05385 -12.2833 8.20031 -3.27632 -11.7075 9.22197 -2.28096 -12.332 7 -4.07735
 4.66796 7 12.1265 4.36513 8.10941 11.9809 3.66834 7 12.4614 3.30427 8.20031 12.2758 3.87838 9.22197 11.2795 2.63489 7 12.7185
 -25.3159 4.0373 33.8484 -23.2679 4.51144 34.5385 -24.8512 5.04206 33.0435 -24.6699 3.94657 32.7296 -25.1144 2.90721 33.4995 -23.7126 3.47102 35.3089 -24.4887 2.85109 32.4157 -21.9127 3.96429 35.8807 -25.7401 2.96332 34.5832
 -25.3159 4.0373 -33.8484 -24.2522 3.50711 -34.9643 -25.7401 2.96332 -34.5832 -25.1144 2.90721 -33.4995 -24.6699 3.94657 -32.7296 -23.8061 4.54533 -34.1916 -24.4887 2.85109 -32.4157 -22.885 4.0344 -35.2502 -24.8512 5.04206 -33.0435
 8.16555 7 -10.1077 8.1915 8.10925 -9.77231 8.95599 7 -9.40928 8.97755 8.20022 -9.00101 7.82814 9.22185 -8.99953 9.69583 7 -8.64252
 38.9633 6.82 5 38.9073 5.56775 5 40.0373 5.9715 5 39.9466 4.67878 5 38.8512 4.31551 5 41.0421 5.04206 5
 -1.70907 9.58281 12.9602 -1.52487 8.1968 12.6412 -1.14254 9.16563 11.9789 -1.97273 8.5 13.4169 -1.66987 7 12.8923 -2.27559 10 13.9414
 -10.3693 9.58281 -7.96019 -10.1851 8.1968 -7.64115 -9.8028 9.16563 -6.97894 -10.633 8.5 -8.41687 -10.3301 7 -7.8923 -10.9358 10 -8.94143
 12.0784 9.58281 -5 11.71 8.1968 -5 10.9453 9.16563 -5 12.6057 8.5 -5 12 7 -5 13.2114 10 -5
 -1.7081 9.58403 -12.9585 -1.97248 8.5 -13.4164 -2.27509 10 -13.9406 -1.52445 8.19848 -12.6404 -1.66987 7 -12.8923 -1.14112 9.16806 -11.9765
 12.0765 9.58403 5 12.6052 8.5 5 13.2104 10 5 11.7092 8.19848 5 12 7 5 10.9425 9.16806 5
 -10.3684 9.58403 7.95852 -10.6327 8.5 8.41644 -10.9353 10 8.94057 -10.1847 8.19848 7.64042 -10.3301 7 7.8923 -9.80137 9.16806 6.97647
 6.05647 9.12967 10.4901 6.94388 9.1643 9.76467 5.5495 9.79145 9.61202 6.27551 9.86785 8.79222 7.82715 9.22158 9.00077 5 10 8.66025
 6.05647 9.12967 -10.4901 4.98391 9.16437 -10.8961 5.5495 9.79145 -9.61202 4.47594 9.8679 -9.83096 3.88006 9.22169 -11.2792 5 10 -8.66025
 -12.1129 9.12967 -4.5088e-15 -11.9283 9.16437 1.13187 -11.099 9.79145 -4.02035e-15 -10.7518 9.8679 1.03921 -11.7081 9.22169 2.27938 -10 10 -3.46945e-15
 5 10 -8.66025 6.2766 9.86811 -8.79047 5.5495 9.79145 -9.61202 6.94436 9.16439 -9.76422 7.82814 9.22185 -8.99953 6.05647 9.12967 -10.4901
 -3.62348 10 11.8189 -4.27286 10 12.8243 -2.94953 10 12.8802 -3.59891 10 13.8856 -4.92223 10 13.8297 -2.27559 10 13.9414
 -8.42376 10 -9.04749 -8.96975 10 -10.1126 -9.6798 10 -8.99446 -10.2258 10 -10.0595 -9.51574 10 -11.1776 -10.9358 10 -8.94143
 12.0472 10 -2.77144 13.2426 10 -2.71175 12.6293 10 -3.88572 13.8247 10 -3.82603 14.438 10 -2.65207 13.2114 10 -5
 -10 10 -3.46945e-15 -10.7508 9.86817 -1.04107 -11.099 9.79145 -4.02035e-15 -11.9281 9.16447 -1.13255 -11.7075 9.22197 -2.28096 -12.1129 9.12967 -4.5088e-15
 5 10 8.66025 4.47383 9.86817 9.83104 5.5495 9.79145 9.61202 4.98323 9.16447 10.8963 3.87838 9.22197 11.2795 6.05647 9.12967 10.4901
 -2.27509 10 -13.9406 -3.59883 10 -13.8847 -2.949 10 -12.8794 -4.27274 10 -12.8235 -4.92257 10 -13.8288 -3.62291 10 -11.8182
 13.2104 10 5 13.8239 10 3.82566 12.6284 10 3.88578 13.2418 10 2.71145 14.4374 10 2.65133 12.0463 10 2.77157
 -10.9353 10 8.94057 -10.2251 10 10.059 -9.67938 10 8.9936 -8.9691 10 10.112 -9.5148 10 11.1775 -8.42341 10 9.04663
 -10.9349 0 -7.0264 -9.76959 0 -6.00909 -11.4799 0 -6.08617 -10.9445 1.15137 -7.01563 -10.3301 1.15137 -7.8923 -9.19956 0 -6.89942 -10.3301 2.30274 -7.8923 -8.06752 0 -5.90891 -10.3301 0 -7.89231
 -0.617578 0 12.9831 -0.319227 0 11.4653 0.469168 0 12.985 -0.603485 1.15137 12.986 -1.66987 1.15137 12.8923 -1.3753 0 11.4168 -1.66987 2.30274 12.8923 -1.08351 0 9.94113 -1.66987 0 12.8923
 11.5523 0 -5.95712 10.0886 0 -5.45656 11.0102 0 -6.89957 11.5475 1.15137 -5.97113 12 1.15137 -5 10.5749 0 -4.51734 12 2.30274 -5 9.15102 0 -4.03222 12 0 -5
 -0.617578 0 -12.9831 -1.37562 0 -11.4168 -1.66987 0 -12.8923 -1.66987 1.15222 -12.8923 -0.603485 1.15222 -12.986 -0.316973 0 -11.4653 -1.66987 2.30445 -12.8923 -1.08351 0 -9.94113 0.469168 0 -12.985
 -10.9349 0 7.0264 -9.1994 0 6.8997 -10.3301 0 7.89231 -10.3301 1.15222 7.8923 -10.9445 1.15222 7.01563 -9.77072 0 6.00714 -10.3301 2.30445 7.8923 -8.06752 0 5.90891 -11.4799 0 6.08617
 11.5523 0 5.95712 10.575 0 4.51706 12 0 5 12 1.15222 5 11.5475 1.15222 5.97113 10.0875 0 5.45852 12 2.30445 5 9.15102 0 4.03222 11.0102 0 6.89957
 -4.79879 10 -18.3117 -4.51237 8.97672 -17.8157 -5.12209 8.76224 -18.8717 -4.83567 7.73896 -18.3756 -4.22595 7.95344 -17.3196 -5.44539 7.52448 -19.4317
 -13.459 10 13.3117 -13.1726 8.97672 12.8157 -13.7823 8.76224 13.8717 -13.4959 7.73896 13.3756 -12.8862 7.95344 12.3196 -14.1056 7.52448 14.4317
 18.2578 10 5 17.685 8.97672 5 18.9044 8.76224 5 18.3316 7.73896 5 17.1121 7.95344 5 19.551 7.52448 5
 3.86839 0 -1.01763 5.30369 0 -1.15247 4 0 0 4 1.19559 0 3.86839 1.19559 -1.01763 5.02759 0 -2.18353 4 2.39118 0 6.5868 0 -2.36939 3.4641 0 -2
 -2.81549 0 -2.84131 -3.64991 0 -4.01689 -2 0 -3.4641 -2 1.19559 -3.4641 -2.81549 1.19559 -2.84131 -4.40479 0 -3.26225 -2 2.39118 -3.4641 -5.34536 0 -4.51964 -3.4641 0 -2
 1.0529 0 -3.85894 1.66612 0 -5.1703 2 0 -3.4641 2 1.19559 -3.4641 1.0529 1.19559 -3.85894 0.608466 0 -5.44697 2 2.39118 -3.4641 1.22877 0 -6.89131 -4.43469e-10 0 -4
 -1.0529 0 3.85894 -1.65377 0 5.16936 -2 0 3.4641 -2 1.19559 3.4641 -1.0529 1.19559 3.85894 -0.622797 0 5.44578 -2 2.39118 3.4641 -1.24145 0 6.88904 -4.43472e-10 0 4
 2.81549 0 2.84131 3.64455 0 4.02805 2 0 3.4641 2 1.19559 3.4641 2.81549 1.19559 2.84131 4.41298 0 3.25043 2 2.39118 3.4641 5.35366 0 4.5098 3.4641 0 2
 -3.86839 0 1.01763 -5.31067 0 1.14224 -4 0 -1.37574e-15 -4 1.19559 -1.37574e-15 -3.86839 1.19559 1.01763 -5.02144 0 2.19654 -4 2.39118 -1.37574e-15 -6.58243 0 2.38151 -3.4641 0 2
 -1.0529 0 -3.85894 -0.6148 0 -5.44585 -4.43469e-10 0 -4 -1.0529 1.19559 -3.85894 -2 1.19559 -3.4641 -1.67208 0 -5.16917 -2 2.39118 -3.4641 -1.24145 0 -6.88904 -2 0 -3.4641
 2.81549 0 -2.84131 4.40811 0 -3.25871 3.4641 0 -2 2.81549 1.19559 -2.84131 2 1.19559 -3.4641 3.65068 0 -4.01769 2 2.39118 -3.4641 5.35366 0 -4.5098 2 0 -3.4641
 -3.86839 0 -1.01763 -5.02618 0 -2.18817 -3.4641 0 -2 -3.86839 1.19559 -1.01763 -4 1.19559 -1.37574e-15 -5.30476 0 -1.15274 -4 2.39118 -1.37574e-15 -6.58243 0 -2.38151 -4 0 -1.37574e-15
 3.86839 0 1.01763 5.02365 0 2.19049 3.4641 0 2 3.86839 1.19559 1.01763 4 1.19559 0 5.31268 0 1.13652 4 2.39118 0 6.5868 0 2.36939 4 0 0
 -2.81549 0 2.84131 -4.40885 0 3.25536 -3.4641 0 2 -2.81549 1.19559 2.84131 -2 1.19559 3.4641 -3.64059 0 4.03265 -2 2.39118 3.4641 -5.34536 0 4.51964 -2 0 3.4641
 1.0529 0 3.85894 0.618077 0 5.44689 -4.43472e-10 0 4 1.0529 1.19559 3.85894 2 1.19559 3.4641 1.65408 0 5.17042 2 2.39118 3.4641 1.22877 0 6.89131 2 0 3.4641
 -1.66987 7 12.8923 -1.66987 5.83057 12.8923 -0.623643 7 12.9828 -0.609303 5.83057 12.9857 -1.66987 4.66114 12.8923 0.456741 7 12.9854
 -10.3301 7 -7.8923 -10.3301 5.83057 -7.8923 -10.9317 7 -7.03152 -10.9413 5.83057 -7.02053 -10.3301 4.66114 -7.8923 -11.4741 7 -6.09717
 12 7 -5 12 5.83057 -5 11.5551 7 -5.95174 11.5506 5.83057 -5.9652 12 4.66114 -5 11.0169 7 -6.88907
 0.458283 7 -12.9854 -0.608585 5.82837 -12.9857 -0.62289 7 -12.9829 -1.66987 5.82837 -12.8923 -1.66987 4.65674 -12.8923 -1.66987 7 -12.8923
 -11.4748 7 6.09581 -10.9417 5.82837 7.01992 -10.9321 7 7.03088 -10.3301 5.82837 7.8923 -10.3301 4.65674 7.8923 -10.3301 7 7.8923
 11.016 7 6.89038 11.5501 5.82837 5.9661 11.5547 7 5.95241 12 5.82837 5 12 4.65674 5 12 7 5
 -16.6556 4.0373 -38.8484 -18.2911 4.51608 -37.4069 -16.1909 5.04206 -38.0435 -16.0027 3.91678 -37.7175 -16.4472 2.87741 -38.4874 -18.736 3.47596 -38.1776 -15.8145 2.7915 -37.3916 -20.142 3.9739 -36.8936 -17.0799 2.96332 -39.5832
 -5.23396 10 -17.1563 -6.6292 10 -17.0974 -5.66914 10 -16.0009 -6.19402 10 -18.2528 -7.58926 10 -18.1939 -4.79879 10 -18.3117
 -12.2408 10 13.1109 -11.4922 10 14.2898 -11.0226 10 12.9101 -12.7104 10 14.4906 -11.9618 10 15.6695 -13.459 10 13.3117
 -16.6556 4.0373 38.8484 -18.1536 3.50697 38.4854 -17.0799 2.96332 39.5832 -16.4472 2.87741 38.4874 -16.0027 3.91678 37.7175 -17.7076 4.54495 37.7129 -15.8145 2.7915 37.3916 -19.0846 4.03415 37.4445 -16.1909 5.04206 38.0435
 17.4748 10 4.04542 18.1214 10 2.80766 16.6918 10 3.09084 18.9044 10 3.76224 19.551 10 2.52448 18.2578 10 5
 -2 8.049 -3.4641 -1.0529 9.06525 -3.85894 -2 9.35188 -3.4641 -1.0529 10.3681 -3.85894 -4.43469e-10 10.0815 -4 -2 10.6548 -3.4641
 -2 10.6548 -3.4641 -2.81549 10.3681 -2.84131 -2 9.35188 -3.4641 -2.81549 9.06525 -2.84131 -3.4641 10.0815 -2 -2 8.049 -3.4641
 4 10.6548 0 3.86839 10.3681 -1.01763 4 9.35188 0 3.86839 9.06525 -1.01763 3.4641 10.0815 -2 4 8.049 0
 -2 8.049 3.4641 -2.81549 9.06525 2.84131 -2 9.35188 3.4641 -2.81549 10.3681 2.84131 -3.4641 10.0815 2 -2 10.6548 3.4641
 -2 10.6548 3.4641 -1.0529 10.3681 3.85894 -2 9.35188 3.4641 -1.0529 9.06525 3.85894 -4.43472e-10 10.0815 4 -2 8.049 3.4641
 2 10.6548 3.4641 2.81549 10.3681 2.84131 2 9.35188 3.4641 2.81549 9.06525 2.84131 3.4641 10.0815 2 2 8.049 3.4641
 2 8.049 -3.4641 2.81549 9.06525 -2.84131 2 9.35188 -3.4641 2.81549 10.3681 -2.84131 3.4641 10.0815 -2 2 10.6548 -3.4641
 2 10.6548 -3.4641 1.0529 10.3681 -3.85894 2 9.35188 -3.4641 1.0529 9.06525 -3.85894 -4.43469e-10 10.0815 -4 2 8.049 -3.4641
 -4 8.049 -1.37574e-15 -3.86839 9.06525 -1.01763 -4 9.35188 -1.37574e-15 -3.86839 10.3681 -1.01763 -3.4641 10.0815 -2 -4 10.6548 -1.37574e-15
 4 8.049 0 3.86839 9.06525 1.01763 4 9.35188 0 3.86839 10.3681 1.01763 3.4641 10.0815 2 4 10.6548 0
 -4 10.6548 -1.37574e-15 -3.86839 10.3681 1.01763 -4 9.35188 -1.37574e-15 -3.86839 9.06525 1.01763 -3.4641 10.0815 2 -4 8.049 -1.37574e-15
 2 8.049 3.4641 1.0529 9.06525 3.85894 2 9.35188 3.4641 1.0529 10.3681 3.85894 -4.43472e-10 10.0815 4 2 10.6548 3.4641
 38.8314 4.20002 -5 38.3939 3.14538 -5 37.7284 4.53025 -5 37.2909 3.4756 -5 37.9564 2.09073 -5 36.6254 4.86047 -5
 -15.8145 2.7915 -37.3916 -15.9717 1.74917 -37.6637 -16.4472 2.87741 -38.4874 -16.6043 1.83508 -38.7595 -16.1288 0.706837 -37.9359 -17.0799 2.96332 -39.5832
 -15.6885 5.9715 -37.1733 -16.704 6.40616 -35.9746 -15.1515 6.82 -36.2432 -15.1501 5.4792 -36.2408 -15.6698 4.59023 -37.1409 -17.223 5.51417 -36.8736 -15.1488 4.13841 -36.2384 -18.1166 5.97023 -35.7678 -16.1909 5.04206 -38.0435
 -15.6885 5.9715 37.1733 -17.8018 5.51427 36.5393 -16.1909 5.04206 38.0435 -15.6698 4.59023 37.1409 -15.1501 5.4792 36.2408 -17.2826 6.40646 35.6401 -15.1488 4.13841 36.2384 -19.1635 5.97086 35.1625 -15.1515 6.82 36.2432
 -16.1666 0.678063 38.0013 -15.9906 1.73478 37.6965 -16.6232 1.82069 38.7923 -16.4472 2.87741 38.4874 -15.8145 2.7915 37.3916 -17.0799 2.96332 39.5832
 41.9715 4.0373 -5 42.4062 3.50697 -3.5212 42.82 2.96332 -5 41.4832 2.95166 -5 40.5942 3.99103 -5 41.5142 4.54495 -3.5212 40.1464 2.94 -5 41.9702 4.03415 -2.19451 41.0421 5.04206 -5
 5.35366 13 -4.5098 5.41477 12.02 -4.72769 4.47998 13 -5.37864 4.61376 11.9463 -5.55901 5.79743 11.0231 -5.23435 3.5 13 -6.06218
 -6.58243 13 -2.38151 -6.80166 12.02 -2.32555 -6.89803 13 -1.19046 -7.12112 11.9463 -1.21619 -7.43176 11.0231 -2.40368 -7 13 -1.94874e-15
 1.22877 13 6.89131 1.38684 12.02 7.05319 2.41805 13 6.5691 2.50731 11.9463 6.77517 1.63423 11.0231 7.63794 3.5 13 6.06218
 3.5 13 6.06218 4.62214 11.9497 5.55012 4.47998 13 5.37864 5.41441 12.0195 4.72837 5.79835 11.0228 5.23371 5.35366 13 4.5098
 -7 13 -1.94874e-15 -7.11761 11.9497 1.2279 -6.89803 13 1.19046 -6.80207 12.0195 2.3249 -7.43167 11.0228 2.4048 -6.58243 13 2.38151
 3.5 13 -6.06218 2.49541 11.9497 -6.77798 2.41805 13 -6.5691 1.38762 12.0195 -7.05322 1.63322 11.0228 -7.63841 1.22877 13 -6.89131
 7.82814 9.22185 -8.99953 6.2766 9.86811 -8.79047 7.47049 9.80706 -8.04932 6.04905 10 -7.9589 5 10 -8.66025 7.03331 10 -7.10018
 7.03331 10 7.10018 6.04905 10 7.9589 7.47033 9.80708 8.04943 6.27551 9.86785 8.79222 5 10 8.66025 7.82715 9.22158 9.00077
 -11.7075 9.22197 -2.28096 -10.7508 9.86817 -1.04107 -10.7058 9.80709 -2.44638 -9.91709 10 -1.2596 -10 10 -3.46945e-15 -9.66537 10 -2.54177
 3.87838 9.22197 11.2795 4.47383 9.86817 9.83104 3.23426 9.80709 10.4947 3.8677 10 9.21825 5 10 8.66025 2.63145 10 9.64134
 -9.66537 10 2.54177 -9.91709 10 1.2596 -10.7058 9.8071 2.44614 -10.7518 9.8679 1.03921 -10 10 -3.46945e-15 -11.7081 9.22169 2.27938
 2.63145 10 -9.64134 3.8677 10 -9.21825 3.23448 9.8071 -10.4946 4.47594 9.8679 -9.83096 5 10 -8.66025 3.88006 9.22169 -11.2792
 40.0373 5.9715 -5 40.6854 5.38257 -3.20428 41.0421 5.04206 -5 39.9367 4.62104 -5 38.8974 5.51001 -5 39.6564 6.286 -3.20428 38.8314 4.20002 -5 40.3227 5.71687 -1.61994 38.9633 6.82 -5
 37.9564 2.09073 -5 39.0514 2.51537 -5 39.2051 1.30436 -5 40.3001 1.729 -5 40.1464 2.94 -5 40.4538 0.517992 -5
 -2.88886 10 15.0037 -2.61318 8.34863 14.5262 -2.27559 10 13.9414 -3.59891 10 13.8856 -4.21218 10 14.9478 -3.22646 8.34863 15.5884 -4.92223 10 13.8297 -2.95078 6.69727 15.1109 -3.50213 10 16.0659
 -11.5491 10 -10.0037 -11.2734 8.34863 -9.52616 -10.9358 10 -8.94143 -10.2258 10 -10.0595 -10.8391 10 -11.1217 -11.8867 8.34863 -10.5884 -9.51574 10 -11.1776 -11.611 6.69727 -10.1109 -12.1624 10 -11.0659
 14.438 10 -5 13.8866 8.34863 -5 13.2114 10 -5 13.8247 10 -3.82603 15.0512 10 -3.82603 15.1132 8.34863 -5 14.438 10 -2.65207 14.5618 6.69727 -5 15.6645 10 -5
 -2.88856 10 -15.0031 -3.24545 8.4091 -15.6213 -3.50203 10 -16.0657 -4.2123 10 -14.9472 -3.59883 10 -13.8847 -2.63198 8.4091 -14.5587 -4.92257 10 -13.8288 -2.98887 6.8182 -15.1769 -2.27509 10 -13.9406
 14.4374 10 5 15.1512 8.4091 5 15.6643 10 5 15.0508 10 3.82566 13.8239 10 3.82566 13.9242 8.4091 5 14.4374 10 2.65133 14.638 6.8182 5 13.2104 10 5
 -11.5488 10 10.0031 -11.9057 8.4091 10.6213 -12.1623 10 11.0657 -10.8385 10 11.1216 -10.2251 10 10.059 -11.2922 8.4091 9.55873 -9.5148 10 11.1775 -11.6491 6.8182 10.1769 -10.9353 10 8.94057
 36.6789 4.85227 5 37.7651 4.58389 5 37.8211 5.83613 5 38.9073 5.56775 5 38.8512 4.31551 5 38.9633 6.82 5
 -8.66025 10 5 -9.23566 10 3.82553 -9.83246 9.81282 4.90666 -10.3067 9.83561 3.59494 -9.66537 10 2.54177 -11.0072 9.19466 4.72812
 -6.36971e-08 10 -10 1.30482 10 -9.91108 0.666942 9.81282 -10.9685 2.04005 9.83561 -10.7233 2.63145 10 -9.64134 1.40893 9.19466 -11.8966
 1.40866 9.19455 11.8967 2.0386 9.83577 10.7232 0.66781 9.81266 10.9689 1.30482 10 9.91108 2.63145 10 9.64134 -6.36971e-08 10 10
 -11.0072 9.19455 -4.72843 -10.3059 9.83577 -3.59612 -9.83322 9.81266 -4.90609 -9.23566 10 -3.82553 -9.66537 10 -2.54177 -8.66025 10 -5
 7.82715 9.22158 9.00077 6.94388 9.1643 9.76467 8.19083 8.10919 9.77291 7.2354 8.14132 10.4773 6.05647 9.12967 10.4901 8.16502 7 10.1081
 8.66025 10 5 7.93057 10 6.08588 9.16522 9.81283 6.06224 8.26575 9.83564 7.12933 7.03331 10 7.10018 9.59762 9.19468 7.16928
 9.59793 9.19457 -7.16906 8.26637 9.8358 -7.12797 9.16513 9.81266 -6.06315 7.93057 10 -6.08588 7.03331 10 -7.10018 8.66025 10 -5
 8.16555 7 -10.1077 7.23657 8.14161 -10.4763 8.1915 8.10925 -9.77231 6.94436 9.16439 -9.76422 6.05647 9.12967 -10.4901 7.82814 9.22185 -8.99953
 3.88006 9.22169 -11.2792 4.98391 9.16437 -10.8961 4.36603 8.10934 -11.9806 5.45449 8.14148 -11.5053 6.05647 9.12967 -10.4901 4.66859 7 -12.1262
 -11.7081 9.22169 2.27938 -11.9283 9.16437 1.13187 -12.5585 8.10934 2.20922 -12.6911 8.14148 1.02892 -12.1129 9.12967 -4.5088e-15 -12.8359 7 2.02
 -12.8358 7 -2.02067 -12.6909 8.14178 -1.03042 -12.5584 8.10941 -2.21016 -11.9281 9.16447 -1.13255 -12.1129 9.12967 -4.5088e-15 -11.7075 9.22197 -2.28096
 4.66796 7 12.1265 5.45306 8.14178 11.5058 4.36513 8.10941 11.9809 4.98323 9.16447 10.8963 6.05647 9.12967 10.4901 3.87838 9.22197 11.2795
 -24.4887 2.85109 32.4157 -24.6244 1.73809 32.6507 -25.1144 2.90721 33.4995 -25.2501 1.7942 33.7344 -24.76 0.625081 32.8857 -25.7401 2.96332 34.5832
 -24.76 0.625081 -32.8857 -24.6244 1.73809 -32.6507 -25.2501 1.7942 -33.7344 -25.1144 2.90721 -33.4995 -24.4887 2.85109 -32.4157 -25.7401 2.96332 -34.5832
 -4.20674 0 12.3005 -4.98923 0 13.2036 -5.38148 0 11.8338 -6.13586 0 12.6825 -5.77173 0 14.1066 -6.5 0 11.2583
 -15.8145 2.7915 -37.3916 -15.2362 2.1881 -36.3899 -15.9717 1.74917 -37.6637 -15.3933 1.14576 -36.6621 -14.6579 1.58469 -35.3882 -16.1288 0.706837 -37.9359
 3.5 13 -6.06218 4.61376 11.9463 -5.55901 3.60401 11.9023 -6.24233 4.89532 11.0273 -6.10059 5.79743 11.0231 -5.23435 3.9341 10.8892 -6.81407
 40.5412 3.96475 5 41.9715 4.0373 5 41.0421 5.04206 5 41.4302 2.92538 5 42.82 2.96332 5 40.0404 2.88744 5
 -7 13 -1.94874e-15 -7.12112 11.9463 -1.21619 -7.20802 11.9023 -2.23652e-15 -7.73092 11.0273 -1.18924 -7.43176 11.0231 -2.40368 -7.86821 10.8892 -2.62054e-15
 3.5 13 6.06218 2.50731 11.9463 6.77517 3.60401 11.9023 6.24233 2.83555 11.0273 7.28979 1.63423 11.0231 7.63794 3.9341 10.8892 6.81407
 3.9341 10.8892 6.81407 4.89411 11.0262 6.10285 3.60401 11.9023 6.24233 4.62214 11.9497 5.55012 5.79835 11.0228 5.23371 3.5 13 6.06218
 -7.86821 10.8892 -2.62054e-15 -7.73227 11.0262 1.18707 -7.20802 11.9023 -2.23652e-15 -7.11761 11.9497 1.2279 -7.43167 11.0228 2.4048 -7 13 -1.94874e-15
 3.9341 10.8892 -6.81407 2.83811 11.0262 -7.28988 3.60401 11.9023 -6.24233 2.49541 11.9497 -6.77798 1.63322 11.0228 -7.63841 3.5 13 -6.06218
 -20.4094 7.09297 25.3502 -20.2507 5.85245 25.0753 -20.9185 6.50274 26.2318 -20.7598 5.26222 25.957 -20.0921 4.61192 24.8005 -21.4275 5.91251 27.1135
 -11.7492 7.09297 -30.3502 -11.5905 5.85245 -30.0753 -12.2582 6.50274 -31.2318 -12.0995 5.26222 -30.957 -11.4318 4.61192 -29.8005 -12.7673 5.91251 -32.1135
 -24.3488 5.9715 32.1733 -22.8193 6.3679 32.4994 -23.8118 6.82 31.2432 -23.793 5.43015 31.2107 -24.3127 4.54118 32.1108 -23.3368 5.4723 33.3957 -23.7742 4.0403 31.1781 -21.9501 5.88985 33.6618 -24.8512 5.04206 33.0435
 -24.3488 5.9715 -32.1733 -22.9021 5.51054 -33.5993 -24.8512 5.04206 -33.0435 -24.3127 4.54118 -32.1108 -23.793 5.43015 -31.2107 -22.3832 6.40284 -32.7006 -23.7742 4.0403 -31.1781 -21.1579 5.96327 -34.0213 -23.8118 6.82 -31.2432
 8.49192 2.39887 9.84313 7.51903 2.33247 10.6049 8.3174 1.19944 9.99104 7.33477 1.13303 10.7332 6.5 2.26607 11.2583 8.13697 0 10.1309
 8.13697 0 -10.1309 7.33477 1.13303 -10.7332 8.31746 1.19945 -9.99099 7.5191 2.33248 -10.6049 6.5 2.26607 -11.2583 8.49205 2.39889 -9.84302
 4.27713 2.39896 -12.2762 5.42399 2.33251 -11.8144 4.49171 1.19948 -12.1994 5.62646 1.13303 -11.7193 6.5 2.26607 -11.2583 4.70235 0 -12.1133
 -12.7701 2.39896 2.43402 -12.9436 2.33251 1.20989 -12.8108 1.19948 2.20975 -12.9625 1.13303 0.987013 -13 2.26607 -4.87067e-15 -12.8416 0 1.98432
 -12.8416 0 -1.98432 -12.9625 1.13303 -0.987013 -12.8108 1.19951 -2.20985 -12.9436 2.33255 -1.20999 -13 2.26607 -4.87067e-15 -12.7701 2.39902 -2.43422
 4.70235 0 12.1133 5.62646 1.13303 11.7193 4.49161 1.19951 12.1994 5.4239 2.33255 11.8145 6.5 2.26607 11.2583 4.27694 2.39902 12.2763
 37.585 1.97244 5 38.2181 3.14397 5 37.132 3.41235 5 37.7651 4.58389 5 38.8512 4.31551 5 36.6789 4.85227 5
 -8.54921 0 -9.79342 -8.73797 0 -11.1403 -7.55767 0 -10.5774 -7.71336 0 -11.8728 -8.92672 0 -12.4872 -6.5 0 -11.2583
 12.756 0 -2.50713 14.0168 0 -1.99714 12.9391 0 -1.25642 14.1388 0 -0.743575 15.2776 0 -1.48715 13 0 0
 -6.5 0 11.2583 -7.71336 0 11.8728 -7.55767 0 10.5774 -8.73797 0 11.1403 -8.92672 0 12.4872 -8.54921 0 9.79342
 -8.66987 4.96119 -25.0167 -8.06666 4.33096 -23.9719 -8.66987 3.73148 -25.0167 -8.06666 3.0705 -23.9719 -7.46345 3.70073 -22.9271 -8.66987 2.44027 -25.0167
 -8.66987 2.44027 -25.0167 -9.27309 3.0705 -26.0615 -8.66987 3.73148 -25.0167 -9.27309 4.33096 -26.0615 -9.8763 3.70073 -27.1063 -8.66987 4.96119 -25.0167
 26 4.96119 5 24.7936 4.33096 5 26 3.73148 5 24.7936 3.0705 5 23.5871 3.70073 5 26 2.44027 5
 -17.3301 2.44027 20.0167 -17.9333 3.0705 21.0615 -17.3301 3.73148 20.0167 -17.9333 4.33096 21.0615 -18.5366 3.70073 22.1063 -17.3301 4.96119 20.0167
 -17.3301 4.96119 20.0167 -16.7269 4.33096 18.9719 -17.3301 3.73148 20.0167 -16.7269 3.0705 18.9719 -16.1237 3.70073 17.9271 -17.3301 2.44027 20.0167
 26 2.44027 5 27.2064 3.0705 5 26 3.73148 5 27.2064 4.33096 5 28.4129 3.70073 5 26 4.96119 5
 -4.92223 10 13.8297 -5.61046 10 14.8887 -4.21218 10 14.9478 -4.90041 10 16.0068 -6.2987 10 15.9478 -3.50213 10 16.0659
 -9.51574 10 -11.1776 -10.0888 10 -12.3032 -10.8391 10 -11.1217 -11.4121 10 -12.2473 -10.6619 10 -13.4287 -12.1624 10 -11.0659
 14.438 10 -2.65207 15.6993 10 -2.58557 15.0512 10 -3.82603 16.3125 10 -3.75953 16.9605 10 -2.51907 15.6645 10 -5
 38.8314 4.20002 -5 37.7284 4.53025 -5 38.8974 5.51001 -5 37.7943 5.84023 -5 36.6254 4.86047 -5 38.9633 6.82 -5
 -16.1666 0.678063 38.0013 -15.4122 1.13138 36.6948 -15.9906 1.73478 37.6965 -15.2362 2.1881 36.3899 -14.6579 1.58469 35.3882 -15.8145 2.7915 37.3916
 -24.4887 2.85109 32.4157 -23.9034 2.21789 31.402 -24.6244 1.73809 32.6507 -24.0391 1.10489 31.6369 -23.3182 1.58469 30.3882 -24.76 0.625081 32.8857
 -24.4887 2.85109 -32.4157 -24.6244 1.73809 -32.6507 -23.9035 2.21789 -31.402 -24.0391 1.10489 -31.6369 -24.76 0.625081 -32.8857 -23.3182 1.58469 -30.3882
 -4.22595 7.95344 -17.3196 -4.3103 6.68899 -17.4657 -4.83567 7.73896 -18.3756 -4.92002 6.47451 -18.5217 -4.39466 5.42454 -17.6118 -5.44539 7.52448 -19.4317
 -12.8862 7.95344 12.3196 -12.9706 6.68899 12.4657 -13.4959 7.73896 13.3756 -13.5803 6.47451 13.5217 -13.0549 5.42454 12.6118 -14.1056 7.52448 14.4317
 17.1121 7.95344 5 17.2809 6.68899 5 18.3316 7.73896 5 18.5003 6.47451 5 17.4496 5.42454 5 19.551 7.52448 5
 19.3317 7.37171 -5 18.1461 7.44539 -5 18.7942 8.68585 -5 17.6086 8.75953 -5 16.9605 7.51907 -5 18.2566 10 -5
 -13.996 7.37171 -14.2418 -13.4032 7.44539 -13.215 -13.7272 8.68585 -13.7762 -13.1344 8.75953 -12.7495 -12.8104 7.51907 -12.1883 -13.4584 10 -13.3107
 -5.33574 7.37171 19.2418 -4.74294 7.44539 18.215 -5.06695 8.68585 18.7762 -4.47415 8.75953 17.7495 -4.15015 7.51907 17.1883 -4.79816 10 18.3107
 -9.8028 9.16563 -6.97894 -10.8695 8.12108 -6.68802 -10.4342 9.21078 -5.87228 -11.4723 8.14048 -5.56159 -11.4741 7 -6.09717 -11.0072 9.19455 -4.72843
 -1.14254 9.16563 11.9789 -0.357247 8.12108 12.7573 0.13155 9.21078 11.9724 0.919676 8.14048 12.7161 0.456741 7 12.9854 1.40866 9.19455 11.8967
 -11.0072 9.19466 4.72812 -11.473 8.14029 5.56041 -10.4335 9.21202 5.87063 -10.8689 8.12287 6.68757 -11.4748 7 6.09581 -9.80137 9.16806 6.97647
 1.40893 9.19466 -11.8966 0.921035 8.14029 -12.7161 0.132648 9.21202 -11.971 -0.357172 8.12287 -12.7565 0.458283 7 -12.9854 -1.14112 9.16806 -11.9765
 10.9453 9.16563 -5 11.2267 8.12105 -6.06928 10.3024 9.21082 -6.10053 10.5523 8.14048 -7.15493 11.0169 7 -6.88907 9.59793 9.19457 -7.16906
 9.59762 9.19468 7.16928 10.5513 8.14031 7.15666 10.3006 9.21205 6.10081 11.2257 8.12287 6.06951 11.016 7 6.89038 10.9425 9.16806 5
 -11.9521 0 5.08721 -10.3348 0 5.01794 -11.4799 0 6.08617 -11.6682 1.34992 5.73169 -12.1154 1.34992 4.71344 -10.7623 0 4.00336 -11.8396 2.69983 5.36872 -9.183 0 3.95885 -12.3433 0 4.04307
 1.57041 0 -12.8945 0.821734 0 -11.4592 0.469168 0 -12.985 0.870327 1.34992 -12.9708 1.97575 1.34992 -12.849 1.91414 0 -11.3221 1.27036 2.69983 -12.9378 1.16303 0 -9.93214 2.67023 0 -12.7111
 1.57041 0 12.8945 1.9127 0 11.3221 2.67023 0 12.7111 1.97555 1.35007 12.849 0.870122 1.35007 12.9708 0.822982 0 11.4592 1.26995 2.70013 12.9378 1.16303 0 9.93214 0.469168 0 12.985
 -11.9521 0 -5.08721 -10.7616 0 -4.00462 -12.3433 0 -4.04307 -12.1153 1.35007 -4.71363 -11.6681 1.35007 -5.73188 -10.3354 0 -5.01685 -11.8395 2.70013 -5.3691 -9.183 0 -3.95885 -11.4799 0 -6.08617
 10.3809 0 7.80836 9.51281 0 6.44161 11.0102 0 6.89957 10.797 1.34981 7.24049 10.1385 1.34981 8.13701 8.84755 0 7.31945 10.5684 2.69961 7.57029 8.01997 0 5.97328 9.6718 0 8.66942
 10.3809 0 -7.80836 8.84829 0 -7.3182 9.6718 0 -8.66942 10.1386 1.34992 -8.13688 10.7971 1.34992 -7.24034 9.51218 0 -6.44269 10.5686 2.69983 -7.57 8.01997 0 -5.97328 11.0102 0 -6.89957
 5 10 8.66025 6.04905 10 7.9589 4.44455 10.2133 7.69819 5.53086 10.211 7.07524 7.03331 10 7.10018 3.9341 10.8892 6.81407
 3.9341 10.8892 -6.81407 5.52739 10.2096 -7.08247 4.44455 10.2133 -7.69819 6.04905 10 -7.9589 7.03331 10 -7.10018 5 10 -8.66025
 -7.86821 10.8892 -2.62054e-15 -8.89722 10.2096 -1.24602 -8.8891 10.2133 -3.02354e-15 -9.91709 10 -1.2596 -9.66537 10 -2.54177 -10 10 -3.46945e-15
 -10 10 -3.46945e-15 -9.91709 10 1.2596 -8.8891 10.2133 -3.02354e-15 -8.89269 10.211 1.25265 -9.66537 10 2.54177 -7.86821 10.8892 -2.62054e-15
 5 10 -8.66025 3.8677 10 -9.21825 4.44455 10.2133 -7.69819 3.36152 10.211 -8.32762 2.63145 10 -9.64134 3.9341 10.8892 -6.81407
 3.9341 10.8892 6.81407 3.36952 10.2096 8.32823 4.44455 10.2133 7.69819 3.8677 10 9.21825 2.63145 10 9.64134 5 10 8.66025
 -15.5478 -10 -36.9296 -16.8929 -10 -36.5448 -16.1897 -10 -38.0413 -15.8687 -8.77128 -37.4854 -15.2269 -8.77128 -36.3737 -16.2521 -10 -35.4349 -15.5478 -7.54257 -36.9296 -17.4836 -10 -35.1149 -14.9059 -10 -35.8178
 -15.5478 -10 36.9296 -16.2423 -10 35.4405 -14.9059 -10 35.8178 -15.2269 -8.77128 36.3737 -15.8687 -8.77128 37.4854 -16.8831 -10 36.5505 -15.5478 -7.54257 36.9296 -17.4656 -10 35.1252 -16.1897 -10 38.0413
 39.7558 -10 -5 38.8135 -10 -3.65406 38.4721 -10 -5 39.114 -8.77128 -5 40.3977 -8.77128 -5 40.0952 -10 -3.65406 39.7558 -7.54257 -5 39.1522 -10 -2.43695 41.0396 -10 -5
 -24.208 -10 -31.9296 -22.516 -10 -31.8184 -23.5662 -10 -30.8178 -23.8871 -8.77128 -31.3737 -24.529 -8.77128 -32.4854 -23.1568 -10 -32.9284 -24.208 -7.54257 -31.9296 -21.5855 -10 -32.7466 -24.8499 -10 -33.0413
 -24.208 -10 31.9296 -23.1471 -10 32.934 -24.8499 -10 33.0413 -24.529 -8.77128 32.4854 -23.8871 -8.77128 31.3737 -22.5062 -10 31.824 -24.208 -7.54257 31.9296 -21.5677 -10 32.7569 -23.5662 -10 30.8178
 39.7558 -10 5 40.0952 -10 3.57895 41.0396 -10 5 40.3977 -8.77128 5 39.114 -8.77128 5 38.8135 -10 3.57895 39.7558 -7.54257 5 39.1522 -10 2.29975 38.4721 -10 5
 1.63322 11.0228 -7.63841 0.193461 11.1903 -7.64946 1.38762 12.0195 -7.05322 -0.0588102 12.1618 -7.13179 -1.2382 11.2605 -7.48098 1.22877 13 -6.89131
 -7.43167 11.0228 2.4048 -6.72136 11.1903 3.65719 -6.80207 12.0195 2.3249 -6.1469 12.1618 3.61682 -5.85962 11.2605 4.8128 -6.58243 13 2.38151
 5.79835 11.0228 5.23371 6.52784 11.1903 3.99233 5.41441 12.0195 4.72837 6.20571 12.1618 3.51497 7.09781 11.2605 2.6682 5.35366 13 4.5098
 2.63489 7 12.7185 3.30427 8.20031 12.2758 2.06109 8.09821 12.5965 2.66216 9.23766 11.6194 3.87838 9.22197 11.2795 1.40866 9.19455 11.8967
 -12.332 7 -4.07735 -12.2833 8.20031 -3.27632 -11.9395 8.09821 -4.5133 -11.3937 9.23766 -3.50419 -11.7075 9.22197 -2.28096 -11.0072 9.19455 -4.72843
 9.69583 7 -8.64252 8.97755 8.20022 -9.00101 9.87716 8.0982 -8.08469 8.7308 9.23761 -8.11608 7.82814 9.22185 -8.99953 9.59793 9.19457 -7.16906
 1.40893 9.19466 -11.8966 2.66326 9.23761 -11.6192 2.06139 8.09844 -12.5964 3.3072 8.19982 -12.2752 3.88006 9.22169 -11.2792 2.63635 7 -12.7182
 -11.0072 9.19466 4.72812 -11.3941 9.23761 3.50313 -11.9395 8.09844 4.51297 -12.2843 8.19982 3.2735 -11.7081 9.22169 2.27938 -12.3324 7 4.07594
 9.59762 9.19468 7.16928 8.73008 9.23756 8.11692 9.87708 8.09842 8.08463 8.97588 8.19974 9.00298 7.82715 9.22158 9.00077 9.69483 7 8.64363
 1.22877 13 6.89131 -0.0536171 12.1599 7.13244 1.38684 12.02 7.05319 0.18871 11.1904 7.64943 -1.24193 11.2591 7.48138 1.63423 11.0231 7.63794
 -6.58243 13 -2.38151 -6.15006 12.1599 -3.61265 -6.80166 12.02 -2.32555 -6.71896 11.1904 -3.66129 -5.8581 11.2591 -4.81624 -7.43176 11.0231 -2.40368
 5.35366 13 -4.5098 6.20368 12.1599 -3.51979 5.41477 12.02 -4.72769 6.5302 11.1904 -3.9882 7.10002 11.2591 -2.66516 5.79743 11.0231 -5.23435
 10 10 0 9.91727 10 -1.28361 8.8891 10.2133 -2.61164e-17 8.84277 10.2036 -1.21399 9.66763 10 -2.55674 7.86821 10.8892 -1.08892e-16
 -5 10 -8.66025 -6.07028 10 -7.94681 -4.44455 10.2133 -7.69819 -5.47273 10.2036 -7.05107 -7.04802 10 -7.09405 -3.9341 10.8892 -6.81407
 -3.9341 10.8892 -6.81407 -3.36461 10.2038 -8.26687 -4.44455 10.2133 -7.69819 -3.847 10 -9.23042 -2.61962 10 -9.65078 -5 10 -8.66025
 7.86821 10.8892 -1.08892e-16 8.84163 10.2038 1.2196 8.8891 10.2133 -2.61164e-17 9.91727 10 1.28361 9.66763 10 2.55674 10 10 0
 -5 10 8.66025 -3.847 10 9.23042 -4.44455 10.2133 7.69819 -3.37004 10.2036 8.26506 -2.61962 10 9.65078 -3.9341 10.8892 6.81407
 -3.9341 10.8892 6.81407 -5.47702 10.2038 7.04728 -4.44455 10.2133 7.69819 -6.07028 10 7.94681 -7.04802 10 7.09405 -5 10 8.66025
 6.5 2.26607 11.2583 7.51903 2.33247 10.6049 6.5 3.45453 11.2583 7.51903 3.52093 10.6049 8.49192 2.39887 9.84313 6.5 4.64299 11.2583
 6.5 4.64299 -11.2583 7.5191 3.52094 -10.6049 6.5 3.45453 -11.2583 7.5191 2.33248 -10.6049 8.49205 2.39889 -9.84302 6.5 2.26607 -11.2583
 6.5 2.26607 -11.2583 5.42399 2.33251 -11.8144 6.5 3.45453 -11.2583 5.42399 3.52098 -11.8144 4.27713 2.39896 -12.2762 6.5 4.64299 -11.2583
 -13 2.26607 -4.87067e-15 -12.9436 2.33251 1.20989 -13 3.45453 -4.87067e-15 -12.9436 3.52098 1.20989 -12.7701 2.39896 2.43402 -13 4.64299 -4.87067e-15
 5.79743 11.0231 -5.23435 6.4081 10.2508 -6.13965 4.89532 11.0273 -6.10059 5.52739 10.2096 -7.08247 7.03331 10 -7.10018 3.9341 10.8892 -6.81407
 -13 4.64299 -4.87067e-15 -12.9436 3.52101 -1.20999 -13 3.45453 -4.87067e-15 -12.9436 2.33255 -1.20999 -12.7701 2.39902 -2.43422 -13 2.26607 -4.87067e-15
 6.5 4.64299 11.2583 5.4239 3.52101 11.8145 6.5 3.45453 11.2583 5.4239 2.33255 11.8145 4.27694 2.39902 12.2763 6.5 2.26607 11.2583
 -7.43176 11.0231 -2.40368 -8.52103 10.2508 -2.48024 -7.73092 11.0273 -1.18924 -8.89722 10.2096 -1.24602 -9.66537 10 -2.54177 -7.86821 10.8892 -2.62054e-15
 1.63423 11.0231 7.63794 2.11257 10.2508 8.61954 2.83555 11.0273 7.28979 3.36952 10.2096 8.32823 2.63145 10 9.64134 3.9341 10.8892 6.81407
 3.9341 10.8892 6.81407 5.53086 10.211 7.07524 4.89411 11.0262 6.10285 6.40778 10.2506 6.14093 7.03331 10 7.10018 5.79835 11.0228 5.23371
 3.9341 10.8892 -6.81407 3.36152 10.211 -8.32762 2.83811 11.0262 -7.28988 2.11384 10.2505 -8.6199 2.63145 10 -9.64134 1.63322 11.0228 -7.63841
 -7.86821 10.8892 -2.62054e-15 -8.89269 10.211 1.25265 -7.73227 11.0262 1.18707 -8.52197 10.2505 2.47932 -9.66537 10 2.54177 -7.43167 11.0228 2.4048
 13 0 0 14.1175 0 1.10554 12.9391 0 1.25642 13.9954 0 2.3591 15.2349 0 2.21108 12.756 0 2.50713
 -6.5 0 -11.2583 -6.1013 0 -12.7788 -5.38148 0 -11.8338 -4.95467 0 -13.2999 -5.7026 0 -14.2993 -4.20674 0 -12.3005
 -8.66025 10 5 -8.06322 10.2488 3.6831 -9.23566 10 3.82553 -8.52197 10.2505 2.47932 -7.43167 11.0228 2.4048 -9.66537 10 2.54177
 -6.36971e-08 10 -10 0.841955 10.2488 -8.8245 1.30482 10 -9.91108 2.11384 10.2505 -8.6199 1.63322 11.0228 -7.63841 2.63145 10 -9.64134
 8.66025 10 5 7.22122 10.2488 5.14146 7.93057 10 6.08588 6.40778 10.2506 6.14093 5.79835 11.0228 5.23371 7.03331 10 7.10018
 2.63145 10 9.64134 2.11257 10.2508 8.61954 1.30482 10 9.91108 0.847726 10.2483 8.82508 1.63423 11.0231 7.63794 -6.36971e-08 10 10
 -9.66537 10 -2.54177 -8.52103 10.2508 -2.48024 -9.23566 10 -3.82553 -8.0666 10.2483 -3.67839 -7.43176 11.0231 -2.40368 -8.66025 10 -5
 7.03331 10 -7.10018 6.4081 10.2508 -6.13965 7.93057 10 -6.08588 7.21883 10.2484 -5.14674 5.79743 11.0231 -5.23435 8.66025 10 -5
 19.551 10 5 20.1976 8.76224 5 20.8442 10 5 20.1976 10 3.76224 18.9044 10 3.76224 18.9044 8.76224 5 19.551 10 2.52448 19.551 7.52448 5 18.2578 10 5
 -5.44539 10 -19.4317 -6.19402 10 -18.2528 -4.79879 10 -18.3117 -5.12209 8.76224 -18.8717 -5.76869 8.76224 -19.9917 -6.84062 10 -19.3728 -5.44539 7.52448 -19.4317 -7.58926 10 -18.1939 -6.09199 10 -20.5516
 -14.1056 10 14.4317 -12.7104 10 14.4906 -13.459 10 13.3117 -13.7823 8.76224 13.8717 -14.4289 8.76224 14.9917 -13.357 10 15.6105 -14.1056 7.52448 14.4317 -11.9618 10 15.6695 -14.7522 10 15.5516
 -8.66987 5.05142 25.0167 -9.28879 4.40478 26.0887 -8.66987 3.78917 25.0167 -9.28879 3.1115 26.0887 -9.90771 3.75814 27.1607 -8.66987 2.46486 25.0167
 -17.3301 5.05142 -20.0167 -17.949 4.40478 -21.0887 -17.3301 3.78917 -20.0167 -17.949 3.1115 -21.0887 -18.568 3.75814 -22.1607 -17.3301 2.46486 -20.0167
 26 5.05142 -5 27.2378 4.40478 -5 26 3.78917 -5 27.2378 3.1115 -5 28.4757 3.75814 -5 26 2.46486 -5
 13.2621 0 5 12 1.15222 5 12 0 5 12.4397 0 3.77559 13.6401 0 3.75356 13.2621 1.15222 5 12.756 0 2.50713 12 2.30445 5 14.5242 0 5
 -2.30091 0 -13.9853 -1.66987 1.15222 -12.8923 -1.66987 0 -12.8923 -2.95007 0 -12.6608 -3.56935 0 -13.6894 -2.30091 1.15222 -13.9853 -4.20674 0 -12.3005 -1.66987 2.30445 -12.8923 -2.93195 0 -15.0783
 -2.30091 0 13.9853 -2.30091 1.15137 13.9853 -2.93195 0 15.0783 -3.56935 0 13.6894 -2.95007 0 12.6608 -1.66987 1.15137 12.8923 -4.20674 0 12.3005 -1.66987 2.30274 12.8923 -1.66987 0 12.8923
 13.2621 0 -5 13.2621 1.15137 -5 14.5242 0 -5 13.6401 0 -3.75356 12.4397 0 -3.77559 12 1.15137 -5 12.756 0 -2.50713 12 2.30274 -5 12 0 -5
 -10.9612 0 -8.9853 -10.9612 1.15137 -8.9853 -11.5922 0 -10.0783 -10.0707 0 -9.93585 -9.48958 0 -8.88526 -10.3301 1.15137 -7.8923 -8.54921 0 -9.79342 -10.3301 2.30274 -7.8923 -10.3301 0 -7.89231
 -10.9612 0 8.9853 -10.3301 1.15222 7.8923 -10.3301 0 7.89231 -9.48958 0 8.88526 -10.0707 0 9.93585 -10.9612 1.15222 8.9853 -8.54921 0 9.79342 -10.3301 2.30445 7.8923 -11.5922 0 10.0783
 -12.8104 10 -12.1883 -12.4864 8.75953 -11.6271 -12.1624 10 -11.0659 -11.4121 10 -12.2473 -12.0601 10 -13.3697 -13.1344 8.75953 -12.7495 -10.6619 10 -13.4287 -12.8104 7.51907 -12.1883 -13.4584 10 -13.3107
 16.9605 10 -5 16.3125 8.75953 -5 15.6645 10 -5 16.3125 10 -3.75953 17.6086 10 -3.75953 17.6086 8.75953 -5 16.9605 10 -2.51907 16.9605 7.51907 -5 18.2566 10 -5
 -4.15015 10 17.1883 -5.54843 10 17.1292 -4.79816 10 18.3107 -4.47415 8.75953 17.7495 -3.82614 8.75953 16.6271 -4.90041 10 16.0068 -4.15015 7.51907 17.1883 -6.2987 10 15.9478 -3.50213 10 16.0659
 -1.66987 7 12.8923 -2.31032 6.84863 14.0016 -1.66987 5.83057 12.8923 -2.31032 5.6792 14.0016 -2.95078 6.69727 15.1109 -1.66987 4.66114 12.8923
 -10.3301 7 -7.8923 -10.9706 6.84863 -9.0016 -10.3301 5.83057 -7.8923 -10.9706 5.6792 -9.0016 -11.611 6.69727 -10.1109 -10.3301 4.66114 -7.8923
 12 7 -5 13.2809 6.84863 -5 12 5.83057 -5 13.2809 5.6792 -5 14.5618 6.69727 -5 12 4.66114 -5
 3.4641 10.0815 -2 3.4641 11.5408 -2 2.81549 10.3681 -2.84131 2.81549 11.8274 -2.84131 3.4641 13 -2 2 10.6548 -3.4641
 2 10.6548 -3.4641 1.0529 11.8274 -3.85894 1.0529 10.3681 -3.85894 -4.43469e-10 11.5408 -4 -4.43469e-10 13 -4 -4.43469e-10 10.0815 -4
 -3.4641 10.0815 -2 -3.4641 11.5408 -2 -3.86839 10.3681 -1.01763 -3.86839 11.8274 -1.01763 -3.4641 13 -2 -4 10.6548 -1.37574e-15
 3.4641 10.0815 2 3.4641 11.5408 2 3.86839 10.3681 1.01763 3.86839 11.8274 1.01763 3.4641 13 2 4 10.6548 0
 -4 10.6548 -1.37574e-15 -3.86839 11.8274 1.01763 -3.86839 10.3681 1.01763 -3.4641 11.5408 2 -3.4641 13 2 -3.4641 10.0815 2
 -4.43472e-10 10.0815 4 -4.43472e-10 11.5408 4 1.0529 10.3681 3.85894 1.0529 11.8274 3.85894 -4.43472e-10 13 4 2 10.6548 3.4641
 4 10.6548 0 3.86839 11.8274 -1.01763 3.86839 10.3681 -1.01763 3.4641 11.5408 -2 3.4641 13 -2 3.4641 10.0815 -2
 -4.43469e-10 10.0815 -4 -4.43469e-10 11.5408 -4 -1.0529 10.3681 -3.85894 -1.0529 11.8274 -3.85894 -4.43469e-10 13 -4 -2 10.6548 -3.4641
 -2 10.6548 -3.4641 -2.81549 11.8274 -2.84131 -2.81549 10.3681 -2.84131 -3.4641 11.5408 -2 -3.4641 13 -2 -3.4641 10.0815 -2
 -2 10.6548 3.4641 -1.0529 11.8274 3.85894 -1.0529 10.3681 3.85894 -4.43472e-10 11.5408 4 -4.43472e-10 13 4 -4.43472e-10 10.0815 4
 -3.4641 10.0815 2 -3.4641 11.5408 2 -2.81549 10.3681 2.84131 -2.81549 11.8274 2.84131 -3.4641 13 2 -2 10.6548 3.4641
 2 10.6548 3.4641 2.81549 11.8274 2.84131 2.81549 10.3681 2.84131 3.4641 11.5408 2 3.4641 13 2 3.4641 10.0815 2
 40.0404 2.88744 5 38.8127 2.42994 5 40.2471 1.70272 5 39.0194 1.24521 5 37.585 1.97244 5 40.4538 0.517992 5
 -22.5891 4.45378 29.1255 -22.9536 3.01924 29.7569 -23.1817 4.24704 30.1518 -23.5462 2.81249 30.7832 -23.3182 1.58469 30.3882 -23.7742 4.0403 31.1781
 -23.7742 4.0403 -31.1781 -23.5462 2.81249 -30.7832 -23.1817 4.24704 -30.1518 -22.9536 3.01924 -29.7569 -23.3182 1.58469 -30.3882 -22.5891 4.45378 -29.1255
 -3.9341 10.8892 6.81407 -2.64571 11.1366 7.19118 -3.60401 11.9023 6.24233 -2.32884 12.054 6.76899 -1.24193 11.2591 7.48138 -3.5 13 6.06218
 -3.9341 10.8892 -6.81407 -4.90489 11.1366 -5.88684 -3.60401 11.9023 -6.24233 -4.6977 12.054 -5.40133 -5.8581 11.2591 -4.81624 -3.5 13 -6.06218
 7.86821 10.8892 -1.08892e-16 7.5506 11.1366 -1.30435 7.20802 11.9023 -2.32961e-16 7.02654 12.054 -1.36767 7.10002 11.2591 -2.66516 7 13 -3.67382e-16
 -3.5 13 6.06218 -4.70458 12.054 5.39539 -3.60401 11.9023 6.24233 -4.90544 11.1375 5.88541 -5.85962 11.2605 4.8128 -3.9341 10.8892 6.81407
 -3.5 13 -6.06218 -2.32025 12.054 -6.77198 -3.60401 11.9023 -6.24233 -2.64419 11.1375 -7.19094 -1.2382 11.2605 -7.48098 -3.9341 10.8892 -6.81407
 7 13 -3.67382e-16 7.02483 12.054 1.3766 7.20802 11.9023 -2.32961e-16 7.54963 11.1375 1.30554 7.09781 11.2605 2.6682 7.86821 10.8892 -1.08892e-16
 -11.0226 10 12.9101 -9.71247 10 13.4941 -10.2687 10 12.0438 -8.95856 10 12.6278 -8.40233 10 14.0782 -9.5148 10 11.1775
 16.6918 10 3.09084 16.5425 10 1.66418 15.5646 10 2.87108 15.4153 10 1.44442 16.3933 10 0.237514 14.4374 10 2.65133
 -5.66914 10 -16.0009 -6.83004 10 -15.1583 -5.29585 10 -14.9148 -6.45676 10 -14.0723 -7.99094 10 -14.3157 -4.92257 10 -13.8288
 42.2973 -10 -5 43.2433 -8.66561 -5 43.555 -10 -5 43.1761 -10 -3.65658 41.9207 -10 -3.65658 41.9856 -8.66561 -5 42.8006 -10 -2.44157 42.9316 -7.33122 -5 41.0396 -10 -5
 -16.8185 -10 39.1305 -17.2915 -8.66561 39.9498 -17.4474 -10 40.2197 -18.4213 -10 39.2199 -17.7937 -10 38.1327 -16.6627 -8.66561 38.8606 -19.2858 -10 38.2872 -17.1357 -7.33122 39.6799 -16.1897 -10 38.0413
 32.795 9.6874 5 32.2125 9.80466 3.05798 31.454 9.96153 5 31.7486 8.64532 5 33.0769 8.31948 5 33.5439 9.47208 3.05798 32.0431 7.32911 5 32.9781 9.62534 1.35567 34.1106 9.30984 5
 -3.62348 10 11.8189 -5.08496 10 11.5859 -4.27286 10 12.8243 -5.73434 10 12.5913 -6.54644 10 11.3529 -4.92223 10 13.8297
 12.0472 10 -2.77144 12.5762 10 -1.38926 13.2426 10 -2.71175 13.7716 10 -1.32957 13.1051 10 -0.00707111 14.438 10 -2.65207
 -8.42376 10 -9.04749 -7.49122 10 -10.1967 -8.96975 10 -10.1126 -8.03722 10 -11.2617 -6.55869 10 -11.3458 -9.51574 10 -11.1776
 -26.2249 -9.99999 -37.9753 -26.3082 -8.56003 -38.1196 -25.2211 -9.99999 -38.5548 -25.6053 -10 -36.9022 -26.7189 -10 -36.2784 -27.4051 -8.6395 -37.4669 -26.7672 -8.63574 -36.3622 -26.1076 -10 -35.2197 -27.4269 -7.27148 -37.5047 -27.3301 -10 -37.3372
 46 -9.99999 -3.72378 46.1667 -8.56003 -3.72378 46 -9.99999 -2.56467 44.7609 -10 -3.72378 44.7775 -10 -5 46.1498 -8.6395 -5 44.8742 -8.63574 -5 43.555 -10 -5 46.1935 -7.27148 -5 46 -10 -5
 -19.7751 -9.99999 41.6991 -19.8585 -8.56003 41.8434 -20.7789 -9.99999 41.1195 -19.1556 -10 40.626 -18.0586 -10 41.2784 -18.7448 -8.6395 42.4669 -18.107 -8.63574 41.3622 -17.4474 -10 40.2197 -18.7666 -7.27148 42.5047 -18.6699 -10 42.3372
 -16.8185 -10 -39.1305 -16.6659 -8.6789 -38.8661 -16.1897 -10 -38.0413 -17.8051 -10 -38.1262 -18.4327 -10 -39.2133 -17.2947 -8.6789 -39.9553 -19.3066 -10 -38.2752 -17.1421 -7.3578 -39.691 -17.4474 -10 -40.2197
 -4.92257 10 -13.8288 -5.74063 10 -12.5873 -4.27274 10 -12.8235 -5.0908 10 -11.582 -6.55869 10 -11.3458 -3.62291 10 -11.8182
 14.4374 10 2.65133 13.7713 10 1.32213 13.2418 10 2.71145 12.5757 10 1.38225 13.1051 10 -0.00707111 12.0463 10 2.77157
 -9.5148 10 11.1775 -8.03062 10 11.2652 -8.9691 10 10.112 -7.48492 10 10.1998 -6.54644 10 11.3529 -8.42341 10 9.04663
 -10.7061 -0.311912 -28.5435 -12.3874 -0.430655 -27.9623 -11.3405 -0.835778 -29.6424 -11.2103 0.535467 -29.4169 -10.5593 0.956546 -28.2892 -11.7233 -0.0621712 -26.8121 -11.0802 1.90671 -29.1914 -13.2349 -0.139112 -26.341 -10.0384 0.00638008 -27.387
 -19.3663 -0.311912 23.5435 -17.9459 -0.419562 24.7172 -20.0008 -0.835778 24.6424 -19.8706 0.535467 24.4169 -19.2195 0.956546 23.2892 -17.2816 -0.0558159 23.5665 -19.7404 1.90671 24.1914 -16.0526 -0.124079 24.6408 -18.6987 0.00638008 22.387
 8.01997 0 -5.97328 6.68428 0 -5.24619 7.34965 0 -6.78105 5.9818 0 -6.00512 5.35366 0 -4.5098 6.60746 0 -7.50609
 3.19674 0 -9.47528 2.21294 0 -8.18291 2.19773 0 -9.75551 1.19995 0 -8.41186 1.22877 0 -6.89131 1.16303 0 -9.93214
 -9.183 0 -3.95885 -7.88548 0 -3.16566 -9.54738 0 -2.97446 -8.19148 0 -2.17783 -6.58243 0 -2.38151 -9.8042 0 -1.96918
 6.60746 0 7.50609 5.98014 0 6.00791 7.34965 0 6.78105 6.68491 0 5.24512 5.35366 0 4.5098 8.01997 0 5.97328
 -9.8042 0 1.96918 -8.19307 0 2.17499 -9.54738 0 2.97446 -7.88486 0 3.16675 -6.58243 0 2.38151 -9.183 0 3.95885
 1.16303 0 9.93214 1.2012 0 8.41185 2.19773 0 9.75551 2.20968 0 8.18295 1.22877 0 6.89131 3.19674 0 9.47528
 46 -9.99999 3.70986 46.1498 -8.6395 5 46 -10 5 44.7775 -10 5 44.7609 -10 3.70986 44.8742 -8.63574 5 46.1667 -8.56003 3.70986 43.555 -10 5 46.1935 -7.27148 5 46 -9.99999 2.53915
 -26.2128 -9.99999 37.9822 -27.405 -8.6395 37.4669 -27.3301 -10 37.3372 -26.7189 -10 36.2784 -25.5933 -10 36.9092 -26.7672 -8.63574 36.3622 -26.2962 -8.56003 38.1266 -26.1076 -10 35.2197 -27.4268 -7.27148 37.5047 -25.199 -9.99999 38.5676
 -19.7872 -9.99999 -41.6921 -18.7448 -8.6395 -42.4669 -18.6699 -10 -42.3372 -18.0586 -10 -41.2784 -19.1676 -10 -40.619 -18.107 -8.63574 -41.3622 -19.8705 -8.56003 -41.8365 -17.4474 -10 -40.2197 -18.7666 -7.27148 -42.5047 -20.801 -9.99999 -41.1067
 -21.2245 -10 -29.3152 -22.3857 -8.63171 -28.7732 -22.3301 -10 -28.6769 -22.9481 -10 -29.7474 -21.8502 -10 -30.399 -22.9497 -8.63147 -29.7501 -21.2852 -8.56096 -29.4203 -23.5662 -10 -30.8178 -22.3333 -7.26293 -28.6824 -20.2204 -10 -29.895
 -14.7755 -10 33.0386 -13.7255 -8.63171 33.7732 -13.6699 -10 33.6769 -14.2879 -10 34.7474 -15.4012 -10 34.1223 -14.2895 -8.63147 34.7501 -14.8362 -8.56096 33.1437 -14.9059 -10 35.8178 -13.6731 -7.26293 33.6824 -15.7796 -10 32.4588
 36 -10 -3.72334 36.1112 -8.63171 -5 36 -10 -5 37.236 -10 -5 37.2514 -10 -3.72334 37.2392 -8.63147 -5 36.1213 -8.56096 -3.72334 38.4721 -10 -5 36.0064 -7.26293 -5 36 -10 -2.56387
 -4.16099 4.67803 17.207 -4.93989 4.8546 18.5561 -4.57669 3.71577 17.9271 -5.35559 3.89234 19.2762 -5.71879 5.03117 19.9052 -4.9924 2.75351 18.6471
 -12.8212 4.67803 -12.207 -13.6001 4.8546 -13.5561 -13.2369 3.71577 -12.9271 -14.0158 3.89234 -14.2762 -14.379 5.03117 -14.9052 -13.6526 2.75351 -13.6471
 16.9822 4.67803 -5 18.54 4.8546 -5 17.8136 3.71577 -5 19.3714 3.89234 -5 20.0978 5.03117 -5 18.645 2.75351 -5
 -9.48958 0 -8.88526 -8.46213 0 -7.71803 -10.3301 0 -7.89231 -7.58719 0 -8.64176 -6.62475 0 -7.49084 -8.54921 0 -9.79342
 -2.95007 0 12.6608 -2.45294 0 11.1874 -1.66987 0 12.8923 -3.69038 0 10.8916 -3.17489 0 9.48262 -4.20674 0 12.3005
 12.4397 0 -3.77559 10.9151 0 -3.46941 12 0 -5 11.2776 0 -2.24982 9.79963 0 -1.99178 12.756 0 -2.50713
 -9.48958 0 8.88526 -7.58714 0 8.64184 -8.54921 0 9.79342 -8.46355 0 7.71563 -6.62475 0 7.49084 -10.3301 0 7.89231
 12.4397 0 3.77559 11.2776 0 2.24974 12.756 0 2.50713 10.9137 0 3.47184 9.79963 0 1.99178 12 0 5
 -2.95007 0 -12.6608 -3.69048 0 -10.8916 -4.20674 0 -12.3005 -2.45016 0 -11.1875 -3.17489 0 -9.48262 -1.66987 0 -12.8923
 -1.66987 4.65674 -12.8923 -2.32937 5.73747 -14.0346 -1.66987 5.82837 -12.8923 -2.32937 6.9091 -14.0346 -2.98887 6.8182 -15.1769 -1.66987 7 -12.8923
 12 4.65674 5 13.319 5.73747 5 12 5.82837 5 13.319 6.9091 5 14.638 6.8182 5 12 7 5
 -10.3301 4.65674 7.8923 -10.9896 5.73747 9.03459 -10.3301 5.82837 7.8923 -10.9896 6.9091 9.03459 -11.6491 6.8182 10.1769 -10.3301 7 7.8923
 -9.8042 0 -1.96918 -8.41383 0 -0.949772 -9.95197 0 -0.978898 -8.5 0 -2.93114e-15 -7 0 -2.39283e-15 -10 0 -3.46945e-15
 6.60746 0 -7.50609 5.02944 0 -6.81171 5.82374 0 -8.12921 4.25 0 -7.36122 3.5 0 -6.06218 5 0 -8.66025
 5 0 -8.66025 4.25 0 -7.36122 4.12824 0 -9.10811 3.38076 0 -7.76148 3.5 0 -6.06218 3.19674 0 -9.47528
 -10 0 -3.46945e-15 -8.5 0 -2.93114e-15 -9.95197 0 0.978898 -8.41202 0 0.952913 -7 0 -2.39283e-15 -9.8042 0 1.96918
 5 0 8.66025 4.25 0 7.36122 5.82374 0 8.12921 5.03126 0 6.80857 3.5 0 6.06218 6.60746 0 7.50609
 3.19674 0 9.47528 3.38439 0 7.76148 4.12824 0 9.10811 4.25 0 7.36122 3.5 0 6.06218 5 0 8.66025
 -13.5139 -5.92755 -33.4068 -15.2002 -6.94748 -32.7284 -13.6731 -7.26293 -33.6824 -14.162 -6.25006 -34.5294 -13.9515 -4.94792 -34.1647 -15.0181 -5.6188 -32.413 -14.651 -5.23719 -35.3763 -16.5404 -6.62905 -31.8749 -13.252 -4.65864 -32.9531
 -22.1742 -5.92755 -28.4068 -20.7253 -5.82943 -29.201 -21.9122 -4.65864 -27.9531 -22.6117 -4.94792 -29.1647 -22.8223 -6.25006 -29.5294 -20.8914 -7.1601 -29.4888 -23.3113 -5.23719 -30.3763 -19.6108 -7.05644 -30.2063 -22.3333 -7.26293 -28.6824
 -22.1742 -5.92755 28.4068 -20.7781 -6.92581 29.5029 -22.3333 -7.26293 28.6824 -22.8223 -6.25006 29.5294 -22.6117 -4.94792 29.1647 -20.5944 -5.59754 29.1848 -23.3113 -5.23719 30.3763 -19.3956 -6.5855 30.2146 -21.9122 -4.65864 27.9531
 -4.22595 7.95344 -17.3196 -3.60741 7.38582 -16.2482 -4.3103 6.68899 -17.4657 -3.69177 6.12137 -16.3943 -2.98887 6.8182 -15.1769 -4.39466 5.42454 -17.6118
 17.1121 7.95344 5 15.8751 7.38582 5 17.2809 6.68899 5 16.0438 6.12137 5 14.638 6.8182 5 17.4496 5.42454 5
 -12.8862 7.95344 12.3196 -12.2677 7.38582 11.2482 -12.9706 6.68899 12.4657 -12.352 6.12137 11.3943 -11.6491 6.8182 10.1769 -13.0549 5.42454 12.6118
 -3.62291 10 -11.8182 -4.31145 10 -10.2392 -3.12126 10 -10.7345 -3.847 10 -9.23042 -5 10 -8.66025 -2.61962 10 -9.65078
 12.0463 10 2.77157 11.0232 10 1.38578 10.857 10 2.66415 9.91727 10 1.28361 10 10 0 9.66763 10 2.55674
 -8.42341 10 9.04663 -6.7117 10 8.85344 -7.73571 10 8.07034 -6.07028 10 7.94681 -5 10 8.66025 -7.04802 10 7.09405
 -2.61962 10 9.65078 -3.847 10 9.23042 -3.12155 10 10.7349 -4.31174 10 10.2396 -5 10 8.66025 -3.62348 10 11.8189
 -7.04802 10 -7.09405 -6.07028 10 -7.94681 -7.73589 10 -8.07077 -6.71188 10 -8.85387 -5 10 -8.66025 -8.42376 10 -9.04749
 9.66763 10 -2.55674 9.91727 10 -1.28361 10.8574 10 -2.66409 11.0236 10 -1.38572 10 10 0 12.0472 10 -2.77144
 -14.6579 1.58469 -35.3882 -14.9033 2.86155 -35.8133 -14.2934 3.01924 -34.7569 -14.5388 4.29609 -35.182 -15.1488 4.13841 -36.2384 -13.9289 4.45378 -34.1255
 -15.1488 4.13841 36.2384 -14.9033 2.86155 35.8133 -14.5388 4.29609 35.182 -14.2934 3.01924 34.7569 -14.6579 1.58469 35.3882 -13.9289 4.45378 34.1255
 -21.2124 -10 29.3223 -21.273 -8.56096 29.4273 -20.1981 -10 29.9078 -21.8381 -10 30.406 -22.9481 -10 29.7474 -22.3857 -8.63171 28.7732 -22.9497 -8.63147 29.7501 -23.5662 -10 30.8178 -22.3333 -7.26293 28.6824 -22.3301 -10 28.6769
 -14.7876 -10 -33.0316 -14.8483 -8.56096 -33.1366 -15.8019 -10 -32.446 -15.4133 -10 -34.1153 -14.2879 -10 -34.7474 -13.7255 -8.63171 -33.7732 -14.2895 -8.63147 -34.7501 -14.9059 -10 -35.8178 -13.6731 -7.26293 -33.6824 -13.6699 -10 -33.6769
 36 -10 3.70932 36.1213 -8.56096 3.70932 36 -10 2.53815 37.2514 -10 3.70932 37.236 -10 5 36.1112 -8.63171 5 37.2392 -8.63147 5 38.4721 -10 5 36.0064 -7.26293 5 36 -10 5
 30.0724 -0.311912 -5 28.8816 -0.0237432 -3.3123 28.7371 0.00638008 -5 29.7531 0.987501 -5 31.0552 0.566422 -5 30.2122 -0.362267 -3.3123 30.7692 1.96862 -5 29.0273 -0.0513277 -1.81534 31.3413 -0.835778 -5
 -25.4788 -10 -34.1305 -25.955 -8.67946 -34.9554 -26.1076 -10 -35.2197 -24.7121 -10 -35.5781 -24.0846 -10 -34.4911 -25.3261 -8.67946 -33.8662 -23.4363 -10 -35.8715 -25.8024 -7.35893 -34.691 -24.8499 -10 -33.0413
 15.2349 0 2.21108 14.8795 0 3.60554 13.9954 0 2.3591 13.6401 0 3.75356 14.5242 0 5 12.756 0 2.50713
 -5.7026 0 -14.2993 -4.31728 0 -14.6888 -4.95467 0 -13.2999 -3.56935 0 -13.6894 -2.93195 0 -15.0783 -4.20674 0 -12.3005
 -6.62475 0 -7.49084 -5.98639 0 -6.0023 -7.38438 0 -6.74321 -6.70346 0 -5.21982 -5.34536 0 -4.51964 -8.06752 0 -5.90891
 -1.08351 0 -9.94113 -1.16731 0 -8.41529 -2.1476 0 -9.76667 -2.20811 0 -8.18547 -1.24145 0 -6.88904 -3.17489 0 -9.48262
 9.79963 0 -1.99178 8.19134 0 -2.18321 9.53198 0 -3.02346 7.87222 0 -3.19546 6.5868 0 -2.36939 9.15102 0 -4.03222
 -3.17489 0 9.48262 -2.20495 0 8.18551 -2.1476 0 9.76667 -1.16877 0 8.41527 -1.24145 0 6.88904 -1.08351 0 9.94113
 -8.06752 0 5.90891 -6.7042 0 5.21856 -7.38438 0 6.74321 -5.98477 0 6.00502 -5.34536 0 4.51964 -6.62475 0 7.49084
 9.15102 0 4.03222 7.87151 0 3.19672 9.53198 0 3.02346 8.19288 0 2.18046 6.5868 0 2.36939 9.79963 0 1.99178
 35.6881 -5.92755 5 35.9442 -6.95 3.18303 36.0064 -7.26293 5 36.9817 -6.21878 5 36.5606 -4.91663 5 35.5804 -5.62128 3.18303 37.957 -5.17462 5 35.8759 -6.63412 1.58154 35.1642 -4.65864 5
 35.6881 -5.92755 -5 35.6526 -5.83275 -3.37171 35.1642 -4.65864 -5 36.5606 -4.91627 -5 36.9817 -6.21841 -5 35.9843 -7.16342 -3.37171 37.957 -5.17389 -5 35.9661 -7.06312 -1.92297 36.0064 -7.26293 -5
 10 0 0 8.5 0 0 9.95086 0 -0.99015 8.41177 0 -0.960467 7 0 0 9.79963 0 -1.99178
 -3.17489 0 -9.48262 -3.37043 0 -7.76504 -4.11793 0 -9.11277 -4.25 0 -7.36122 -3.5 0 -6.06218 -5 0 -8.66025
 -5 0 -8.66025 -4.25 0 -7.36122 -5.83292 0 -8.12262 -5.03767 0 -6.80457 -3.5 0 -6.06218 -6.62475 0 -7.49084
 -5 0 8.66025 -4.25 0 7.36122 -4.11793 0 9.11277 -3.37409 0 7.76504 -3.5 0 6.06218 -3.17489 0 9.48262
 -6.62475 0 7.49084 -5.03951 0 6.8014 -5.83292 0 8.12262 -4.25 0 7.36122 -3.5 0 6.06218 -5 0 8.66025
 9.79963 0 1.99178 8.40993 0 0.963642 9.95086 0 0.99015 8.5 0 0 7 0 0 10 0 0
 -4.20674 0 12.3005 -3.56935 0 13.6894 -4.98923 0 13.2036 -4.35184 0 14.5924 -2.93195 0 15.0783 -5.77173 0 14.1066
 -19.3663 -0.311912 -23.5435 -17.3088 -0.0237668 -23.3565 -18.6987 0.00638008 -22.387 -19.2225 0.984859 -23.2943 -19.8736 0.56378 -24.422 -17.9741 -0.36231 -24.5088 -19.7463 1.96334 -24.2016 -16.0848 -0.0513791 -24.2316 -20.0008 -0.835778 -24.6424
 -10.7061 -0.311912 28.5435 -11.4983 -0.0156654 26.6591 -10.0384 0.00638008 27.387 -10.5622 0.984859 28.2943 -11.2133 0.56378 29.422 -12.1636 -0.34744 27.8114 -11.0861 1.96334 29.2016 -12.8031 -0.0339412 26.0215 -11.3405 -0.835778 29.6424
 19.5496 10 -5 20.2662 10 -3.21584 20.8426 10 -5 20.0871 8.68585 -5 18.7942 8.68585 -5 18.9732 10 -3.21584 19.3317 7.37171 -5 19.6898 10 -1.43168 18.2566 10 -5
 -14.1049 10 -14.4304 -12.9181 10 -15.9431 -14.7514 10 -15.5502 -14.3737 8.68585 -14.896 -13.7272 8.68585 -13.7762 -12.2716 10 -14.8233 -13.996 7.37171 -14.2418 -11.0848 10 -16.336 -13.4584 10 -13.3107
 -5.44465 10 19.4304 -7.34808 10 19.1589 -6.09115 10 20.5502 -5.71345 8.68585 19.896 -5.06695 8.68585 18.7762 -6.70159 10 18.0392 -5.33574 7.37171 19.2418 -8.60502 10 17.7677 -4.79816 10 18.3107
 32.0431 7.32911 5 31.7013 5.93696 5 33.0879 6.65091 5 32.746 5.25876 5 31.3594 4.54481 5 34.1326 5.9727 5
 5 0 -8.66025 6.548 0 -9.41738 5.82374 0 -8.12921 7.37283 0 -8.81683 8.13697 0 -10.1309 6.60746 0 -7.50609
 6.60746 0 7.50609 7.37247 0 8.81743 5.82374 0 8.12921 6.549 0 9.41563 8.13697 0 10.1309 5 0 8.66025
 3.19674 0 -9.47528 3.94849 0 -10.794 4.12824 0 -9.10811 4.87834 0 -10.3799 4.70235 0 -12.1133 5 0 -8.66025
 -10 0 -3.46945e-15 -11.4295 0 -0.963449 -9.95197 0 -0.978898 -11.3218 0 -1.97812 -12.8416 0 -1.98432 -9.8042 0 -1.96918
 -9.8042 0 1.96918 -11.3221 0 1.97751 -9.95197 0 0.978898 -11.4285 0 0.965198 -12.8416 0 1.98432 -10 0 -3.46945e-15
 5 0 8.66025 4.88037 0 10.3799 4.12824 0 9.10811 3.94779 0 10.794 4.70235 0 12.1133 3.19674 0 9.47528
 -25.4788 -10 34.1305 -24.6971 -10 35.5868 -26.1076 -10 35.2197 -25.955 -8.67946 34.9554 -25.3261 -8.67946 33.8662 -24.0695 -10 34.4998 -25.8024 -7.35893 34.691 -23.4087 -10 35.8874 -24.8499 -10 33.0413
 42.2973 -10 5 41.9856 -8.66561 5 41.0396 -10 5 41.9124 -10 3.59489 43.1676 -10 3.59489 43.2433 -8.66561 5 42.7838 -10 2.32883 42.9316 -7.33122 5 43.555 -10 5
 26 7.5688 -5 27.3225 7.25929 -5 26 6.27922 -5 27.3225 6.0006 -5 28.645 6.94977 -5 26 5.05142 -5
 -11.926 -1.55224 -30.6565 -12.0593 0.400598 -30.8874 -11.3405 -0.835778 -29.6424 -12.7562 -1.12367 -29.4344 -13.3139 -1.92187 -30.4002 -12.6131 -0.403291 -31.8465 -14.0505 -1.45104 -29.2683 -12.7781 1.63697 -32.1323 -12.4481 -2.44356 -31.5607
 30.8453 2.07795 5 31.1023 3.31138 5 29.6291 2.88934 5 29.8861 4.12277 5 31.3594 4.54481 5 28.4129 3.70073 5
 40.4538 0.517992 -5 40.3001 1.729 -5 41.6369 1.74066 -5 41.4832 2.95166 -5 40.1464 2.94 -5 42.82 2.96332 -5
 6.60746 0 -7.50609 8.13123 0 -8.10103 7.34965 0 -6.78105 8.84829 0 -7.3182 9.6718 0 -8.66942 8.01997 0 -5.97328
 -9.8042 0 -1.96918 -11.081 0 -2.99219 -9.54738 0 -2.97446 -10.7616 0 -4.00462 -12.3433 0 -4.04307 -9.183 0 -3.95885
 1.16303 0 -9.93214 1.91414 0 -11.3221 2.19773 0 -9.75551 2.9475 0 -11.0926 2.67023 0 -12.7111 3.19674 0 -9.47528
 8.01997 0 5.97328 8.84755 0 7.31945 7.34965 0 6.78105 8.1321 0 8.09956 9.6718 0 8.66942 6.60746 0 7.50609
 -9.183 0 3.95885 -10.7623 0 4.00336 -9.54738 0 2.97446 -11.0802 0 2.99368 -12.3433 0 4.04307 -9.8042 0 1.96918
 3.19674 0 9.47528 2.94921 0 11.0926 2.19773 0 9.75551 1.9127 0 11.3221 2.67023 0 12.7111 1.16303 0 9.93214
 -12.8212 4.67803 -12.207 -12.2161 5.68765 -11.159 -12.8158 6.09855 -12.1977 -12.2107 7.10817 -11.1496 -11.611 6.69727 -10.1109 -12.8104 7.51907 -12.1883
 16.9822 4.67803 -5 15.772 5.68765 -5 16.9714 6.09855 -5 15.7612 7.10817 -5 14.5618 6.69727 -5 16.9605 7.51907 -5
 -4.16099 4.67803 17.207 -3.55588 5.68765 16.159 -4.15557 6.09855 17.1977 -3.55046 7.10817 16.1496 -2.95078 6.69727 15.1109 -4.15015 7.51907 17.1883
 -17.3301 7.5688 -20.0167 -17.9986 7.25472 -21.1745 -17.3301 6.27922 -20.0167 -17.9986 5.99603 -21.1745 -18.667 6.94064 -22.3323 -17.3301 5.05142 -20.0167
 -8.66987 7.5688 25.0167 -9.33833 7.25472 26.1745 -8.66987 6.27922 25.0167 -9.33833 5.99603 26.1745 -10.0068 6.94064 27.3323 -8.66987 5.05142 25.0167
 -18.0854 -0.607097 41.3249 -19.7813 -1.13802 40.5869 -18.3248 -1.88936 41.7395 -17.6523 -1.95277 40.5746 -17.3883 -0.691052 40.1175 -19.5172 0.123715 40.1294 -16.9797 -2.01618 39.4097 -21.0355 -0.399239 39.5229 -17.7969 0.634074 40.8252
 -15.1488 4.13841 36.2384 -14.5388 4.29609 35.182 -15.1501 5.4792 36.2408 -14.5402 5.63689 35.1844 -13.9289 4.45378 34.1255 -15.1515 6.82 36.2432
 -13.9289 4.45378 -34.1255 -14.5388 4.29609 -35.182 -14.5402 5.63689 -35.1844 -15.1501 5.4792 -36.2408 -15.1488 4.13841 -36.2384 -15.1515 6.82 -36.2432
 26 7.5688 -5 24.7116 8.7844 -5 26 8.72603 -5 24.7116 10 -5 24.7116 10 -3.78234 26 10 -3.72378 23.4232 10 -5 26 10 -2.56467 26 10 -5
 26 8.72603 -5 27.3643 8.88113 -5 26 7.5688 -5 27.3605 10.1498 -5 26 10 -3.72378 27.44 10.1667 -3.72378 26 10 -2.56467 28.7285 10.1935 -5 26 10 -5
 -17.3301 7.5688 -20.0167 -16.6859 8.7844 -18.9009 -17.3301 8.72603 -20.0167 -16.6859 10 -18.9009 -15.6314 10 -19.5097 -16.2249 10 -20.6548 -16.0417 10 -17.7851 -15.2211 10 -21.2343 -17.3301 10 -20.0167
 -17.3301 8.72603 -20.0167 -18.0123 8.88113 -21.1981 -17.3301 7.5688 -20.0167 -18.0104 10.1498 -21.1949 -16.2249 10 -20.6548 -16.9449 10.1667 -21.9018 -15.2211 10 -21.2343 -18.6944 10.1935 -22.3796 -17.3301 10 -20.0167
 -8.66987 7.5688 25.0167 -8.02567 8.7844 23.9009 -8.66987 8.72603 25.0167 -8.02567 10 23.9009 -9.08019 10 23.292 -9.77511 10 24.3785 -7.38146 10 22.7851 -10.7789 10 23.799 -8.66987 10 25.0167
 -8.66987 8.72603 25.0167 -9.352 8.88113 26.1981 -8.66987 7.5688 25.0167 -9.35012 10.1498 26.1949 -9.77511 10 24.3785 -10.4951 10.1667 25.6256 -10.7789 10 23.799 -10.0341 10.1935 27.3796 -8.66987 10 25.0167
 16.9822 4.67803 -5 17.8136 3.71577 -5 16.0481 3.85033 -5 16.8795 2.88807 -5 18.645 2.75351 -5 15.1139 3.02262 -5
 -12.8212 4.67803 -12.207 -13.2369 3.71577 -12.9271 -12.3542 3.85033 -11.398 -12.7699 2.88807 -12.1181 -13.6526 2.75351 -13.6471 -11.8871 3.02262 -10.589
 -4.16099 4.67803 17.207 -4.57669 3.71577 17.9271 -3.69391 3.85033 16.398 -4.10962 2.88807 17.1181 -4.9924 2.75351 18.6471 -3.22684 3.02262 15.589
 -6.36971e-08 10 10 -0.667796 10.3114 8.68871 -1.31574 10 9.91306 -1.9037 10.3192 8.47232 -1.24193 11.2591 7.48138 -2.61962 10 9.65078
 -8.66025 10 -5 -7.19075 10.3114 -4.92269 -7.92709 10 -6.096 -6.38539 10.3192 -5.88481 -5.8581 11.2591 -4.81624 -7.04802 10 -7.09405
 8.66025 10 -5 7.85854 10.3114 -3.76604 9.24284 10 -3.81706 8.28908 10.3192 -2.58752 7.10002 11.2591 -2.66516 9.66763 10 -2.55674
 -7.04802 10 7.09405 -6.38416 10.3197 5.88461 -7.92709 10 6.096 -7.1945 10.3115 4.91707 -5.85962 11.2605 4.8128 -8.66025 10 5
 -2.61962 10 -9.65078 -1.90414 10.3197 -8.47115 -1.31574 10 -9.91306 -0.661053 10.3115 -8.68916 -1.2382 11.2605 -7.48098 -6.36971e-08 10 -10
 9.66763 10 2.55674 8.28829 10.3197 2.58655 9.24284 10 3.81706 7.85555 10.3115 3.7721 7.09781 11.2605 2.6682 8.66025 10 5
 40.0404 2.88744 5 40.2471 1.70272 5 41.4302 2.92538 5 41.6369 1.74066 5 40.4538 0.517992 5 42.82 2.96332 5
 -22.5891 4.45378 29.1255 -23.1817 4.24704 30.1518 -23.2005 5.63689 30.1844 -23.793 5.43015 31.2107 -23.7742 4.0403 31.1781 -23.8118 6.82 31.2432
 -23.7742 4.0403 -31.1781 -23.1817 4.24704 -30.1518 -23.793 5.43015 -31.2107 -23.2005 5.63689 -30.1844 -22.5891 4.45378 -29.1255 -23.8118 6.82 -31.2432
 1.00927 5.96793 -12.9608 -0.608585 5.82837 -12.9857 0.458283 7 -12.9854 -0.0571031 4.79629 -12.9999 -1.66987 4.65674 -12.8923 1.55699 4.93585 -12.9064
 -11.729 5.96793 5.60633 -10.9417 5.82837 7.01992 -11.4748 7 6.09581 -11.2297 4.79629 6.54939 -10.3301 4.65674 7.8923 -11.9558 4.93585 5.10482
 1.00776 5.96808 12.9609 -0.0579031 4.79865 12.9999 1.55541 4.93615 12.9066 -0.609303 5.83057 12.9857 -1.66987 4.66114 12.8923 0.456741 7 12.9854
 -11.7283 5.96808 -5.6077 -11.2293 4.79865 -6.55008 -11.9552 4.93615 -5.10629 -10.9413 5.83057 -7.02053 -10.3301 4.66114 -7.8923 -11.4741 7 -6.09717
 -21.554 -3.48764 27.3326 -22.1694 -2.26902 28.3985 -21.1083 -2.44356 26.5607 -20.1928 -3.01166 27.6878 -20.5922 -4.12659 28.3798 -22.5713 -3.37657 29.0947 -19.3653 -3.61931 28.7064 -23.2304 -2.09449 30.2363 -21.9122 -4.65864 27.9531
 32.5123 -1.55224 5 32.6244 0.471519 5 31.3413 -0.835778 5 31.8734 -1.12628 3.64352 32.9883 -1.92525 3.64352 33.7319 -0.33237 5 32.3807 -1.45687 2.41768 33.9074 1.77882 5 33.5564 -2.44356 5
 26 10 5 26 10 3.70986 24.7122 10 5 26 8.71149 5 24.7122 8.77107 5 24.7122 10 3.76957 23.4243 10 5 26 10 2.53915 26 7.54214 5
 26 8.71149 5 27.3605 10.1498 5 26 10 5 26 10 3.70986 27.44 10.1667 3.70986 27.3643 8.8678 5 26 10 2.53915 28.7285 10.1935 5 26 7.54214 5
 -17.3301 10 20.0167 -16.2128 10 20.6617 -16.6862 10 18.9014 -17.3301 8.71149 20.0167 -16.6862 8.77107 18.9014 -15.6206 10 19.5166 -16.0423 10 17.7861 -15.199 10 21.2471 -17.3301 7.54214 20.0167
 -17.3301 8.71149 20.0167 -18.0104 10.1498 21.1949 -17.3301 10 20.0167 -16.2128 10 20.6617 -16.9328 10.1667 21.9088 -18.0123 8.8678 21.1981 -15.199 10 21.2471 -18.6944 10.1935 22.3796 -17.3301 7.54214 20.0167
 -8.66987 10 -25.0167 -9.78717 10 -24.3716 -8.02596 10 -23.9014 -8.66987 8.71149 -25.0167 -8.02596 8.77107 -23.9014 -9.09154 10 -23.2862 -7.38204 10 -22.7861 -10.801 10 -23.7862 -8.66987 7.54214 -25.0167
 -8.66987 8.71149 -25.0167 -9.35012 10.1498 -26.1949 -8.66987 10 -25.0167 -9.78717 10 -24.3716 -10.5072 10.1667 -25.6186 -9.352 8.8678 -26.1981 -10.801 10 -23.7862 -10.0341 10.1935 -27.3796 -8.66987 7.54214 -25.0167
 10.7192 5.96726 7.35524 11.5501 5.82837 5.9661 11.016 7 6.89038 11.2864 4.79563 6.45106 12 4.65674 5 10.398 4.93452 7.80267
 10.7202 5.96682 -7.35377 11.2868 4.79739 -6.45039 10.3989 4.93363 -7.80143 11.5506 5.83057 -5.9652 12 4.66114 -5 11.0169 7 -6.88907
 -18.0854 -0.607097 -41.3249 -19.521 -0.211355 -40.3031 -17.797 0.634074 -40.8252 -17.3755 -0.681678 -40.0952 -17.6394 -1.9434 -40.5523 -19.7718 -1.48807 -40.7376 -16.954 -1.99743 -39.3652 -21.0424 -1.08681 -39.8368 -18.3248 -1.88936 -41.7395
 35.3929 8.83113 -5 35.8053 8.65668 -3.13532 36.6341 8.25416 -5 35.3123 7.40668 -5 34.0506 7.93452 -5 34.5293 9.15965 -3.13532 33.9905 6.5592 -5 34.9475 9.00797 -1.49535 34.1106 9.30984 -5
 -26.7457 -0.607097 36.3249 -25.1431 -0.211355 37.0572 -26.4572 0.634074 35.8252 -26.0331 -0.687941 35.0906 -26.297 -1.94966 35.5477 -25.3939 -1.48807 37.4917 -25.6089 -2.00996 34.3559 -23.9785 -1.08681 38.1416 -26.985 -1.88936 36.7395
 -26.7457 -0.607097 -36.3249 -25.2586 -1.13802 -37.4246 -26.985 -1.88936 -36.7395 -26.297 -1.94966 -35.5477 -26.0331 -0.687941 -35.0906 -24.9945 0.123715 -36.967 -25.6089 -2.00996 -34.3559 -23.71 -0.399239 -37.9788 -26.4572 0.634074 -35.8252
 -12.0674 9.6874 -30.9013 -13.3599 9.80461 -29.4828 -11.3969 9.96153 -29.74 -11.573 8.52725 -30.0451 -12.2372 8.20141 -31.1954 -14.0256 9.47201 -30.6357 -11.7492 7.09297 -30.3502 -15.1379 9.62521 -29.3406 -12.7252 9.30984 -32.0407
 -20.7276 9.6874 25.9013 -18.7545 9.80466 26.3679 -20.0571 9.96153 24.74 -20.2333 8.52725 25.0451 -20.8974 8.20141 26.1954 -19.4202 9.47208 27.5208 -20.4094 7.09297 25.3502 -17.6631 9.62534 27.882 -21.3854 9.30984 27.0407
 18.645 0 5 19.2771 0 3.25524 20.0835 0 5 19.1087 1.23094 5 17.6703 1.23094 5 17.8387 0 3.25524 18.134 2.46187 5 18.4708 0 1.51048 17.2066 0 5
 -4.9924 0 -18.6471 -6.81945 0 -18.3221 -5.71161 0 -19.8928 -5.22423 1.23094 -19.0486 -4.50502 1.23094 -17.8029 -6.10024 0 -17.0764 -4.73686 2.46187 -18.2045 -7.9273 0 -16.7514 -4.27319 0 -17.4014
 -13.6526 0 13.6471 -12.7755 0 15.1452 -14.3719 0 14.8928 -13.8845 1.23094 14.0486 -13.1653 1.23094 12.8029 -12.0563 0 13.8995 -13.3971 2.46187 13.2045 -11.1792 0 15.3977 -12.9334 0 12.4014
 30.0724 -0.311912 5 30.4025 -0.428038 3.24291 31.3413 -0.835778 5 31.0933 0.621085 5 29.7912 1.04216 5 29.0742 -0.0606681 3.24291 30.8453 2.07795 5 29.4145 -0.13554 1.68979 28.7371 0.00638008 5
 -13.5139 -5.92755 33.4068 -14.9503 -5.78782 32.5193 -13.252 -4.65864 32.9531 -13.9804 -4.90669 34.2148 -14.191 -6.20883 34.5795 -15.1196 -7.11838 32.8125 -14.7088 -5.15473 35.4765 -16.4022 -6.97265 32.0401 -13.6731 -7.26293 33.6824
 32.0431 7.32911 5 33.0879 6.65091 5 33.0769 8.31948 5 34.1216 7.64127 5 34.1326 5.9727 5 34.1106 9.30984 5
 -22.0266 8.83113 -28.1512 -20.6003 8.55052 -29.7219 -22.6472 8.25416 -29.226 -21.998 7.36902 -28.1017 -21.3672 7.89686 -27.009 -19.9675 9.0722 -28.6259 -21.3489 6.48388 -26.9774 -18.7662 8.81736 -30.0763 -21.3854 9.30984 -27.0407
 -13.3663 8.83113 33.1512 -15.0754 8.65684 32.6402 -13.9869 8.25416 34.226 -13.3377 7.3691 33.1015 -12.7068 7.89694 32.0088 -14.4373 9.15979 31.5352 -12.6884 6.48405 31.977 -15.9762 9.00825 31.1292 -12.7252 9.30984 32.0407
 -11.7492 7.09297 -30.3502 -12.2582 6.50274 -31.2318 -12.2372 8.20141 -31.1954 -12.7462 7.61118 -32.0771 -12.7673 5.91251 -32.1135 -12.7252 9.30984 -32.0407
 44.8311 -0.607097 -5 45.0997 -1.30141 -2.81048 45.3098 -1.88936 -5 43.8964 -1.92666 -5 43.3685 -0.664944 -5 44.5838 -0.0325393 -2.81048 42.4829 -1.96396 -5 44.878 -0.718881 -0.90848 44.2542 0.634074 -5
 44.8311 -0.607097 5 44.5575 0.0250022 3.53531 44.2542 0.634074 5 43.3684 -0.665104 5 43.8963 -1.92682 5 45.0779 -1.24127 3.53531 42.4827 -1.96428 5 44.8301 -0.60096 2.22021 45.3098 -1.88936 5
 8.49205 2.39889 -9.84302 8.77596 3.59168 -9.59075 9.59111 2.54936 -8.77557 9.84726 3.74215 -8.48714 9.05361 4.78446 -9.3291 10.5686 2.69983 -7.57
 9.05314 4.78457 9.32956 8.77566 3.59172 9.59103 9.84692 3.74209 8.48753 9.59093 2.54924 8.77576 8.49192 2.39887 9.84313 10.5684 2.69961 7.57029
 -12.6058 4.78487 3.17701 -12.6936 3.59191 2.80588 -12.2734 3.74235 4.28539 -12.3951 2.5494 3.9195 -12.7701 2.39896 2.43402 -11.8396 2.69983 5.36872
 3.55154 4.78487 -12.5055 3.91683 3.59191 -12.3959 2.42543 3.74235 -12.7717 2.80314 2.5494 -12.6942 4.27713 2.39896 -12.2762 1.27036 2.69983 -12.9378
 4.27694 2.39902 12.2763 3.91636 3.59199 12.3961 2.80284 2.54958 12.6943 2.42483 3.74254 12.7719 3.55077 4.78495 12.5057 1.26995 2.70013 12.9378
 -12.7701 2.39902 -2.43422 -12.6935 3.59199 -2.80636 -12.395 2.54958 -3.91979 -12.2732 3.74254 -4.28596 -12.6056 4.78495 -3.17778 -11.8395 2.70013 -5.3691
 9.79963 0 -1.99178 11.2776 0 -2.24982 9.95086 0 -0.99015 11.3907 0 -1.21213 12.756 0 -2.50713 10 0 0
 -6.62475 0 -7.49084 -7.58719 0 -8.64176 -5.83292 0 -8.12262 -6.74506 0 -9.25854 -8.54921 0 -9.79342 -5 0 -8.66025
 -5 0 -8.66025 -4.64309 0 -10.4707 -4.11793 0 -9.11277 -3.69048 0 -10.8916 -4.20674 0 -12.3005 -3.17489 0 -9.48262
 10 0 0 11.3894 0 1.2143 9.95086 0 0.99015 11.2776 0 2.24974 12.756 0 2.50713 9.79963 0 1.99178
 -3.17489 0 9.48262 -3.69038 0 10.8916 -4.11793 0 9.11277 -4.6456 0 10.4707 -4.20674 0 12.3005 -5 0 8.66025
 -5 0 8.66025 -6.74632 0 9.25636 -5.83292 0 8.12262 -7.58714 0 8.64184 -8.54921 0 9.79342 -6.62475 0 7.49084
 -13.0392 0 -22.494 -13.1495 0 -20.8198 -14.1031 0 -21.8798 -14.2401 0 -20.1901 -13.2598 0 -19.1455 -15.2204 0 -21.2347
 26 0 -0.0452634 24.6052 0 -0.977909 26 0 -1.27376 24.6052 0 -2.23721 23.2104 0 -1.91055 26 0 -2.56387
 -12.9608 0 22.5393 -11.4557 0 21.7977 -11.8969 0 23.1535 -10.3651 0 22.4273 -9.95061 0 21.0561 -10.7796 0 23.7986
 1.22877 0 -6.89131 0.608466 0 -5.44697 -0.00648884 0 -7 -0.6148 0 -5.44585 -4.43469e-10 0 -4 -1.24145 0 -6.88904
 -5.34536 0 -4.51964 -4.40479 0 -3.26225 -6.05893 0 -3.50562 -5.02618 0 -2.18817 -3.4641 0 -2 -6.58243 0 -2.38151
 -1.24145 0 6.88904 -0.622797 0 5.44578 -0.00648884 0 7 0.618077 0 5.44689 -4.43472e-10 0 4 1.22877 0 6.89131
 6.5868 0 -2.36939 5.02759 0 -2.18353 6.06542 0 -3.49438 4.40811 0 -3.25871 3.4641 0 -2 5.35366 0 -4.5098
 -6.58243 0 2.38151 -5.02144 0 2.19654 -6.05893 0 3.50562 -4.40885 0 3.25536 -3.4641 0 2 -5.34536 0 4.51964
 5.35366 0 4.5098 4.41298 0 3.25043 6.06542 0 3.49438 5.02365 0 2.19049 3.4641 0 2 6.5868 0 2.36939
 -12.7375 5.89243 2.59939 -12.9035 4.71393 1.5807 -12.6058 4.78487 3.17701 -12.9611 5.8215 1.00448 -13 4.64299 -4.87067e-15 -12.8359 7 2.02
 4.11759 5.89243 -12.3307 5.08285 4.71393 -11.9651 3.55154 4.78487 -12.5055 5.61066 5.8215 -11.7269 6.5 4.64299 -11.2583 4.66859 7 -12.1262
 -12.7373 5.89248 -2.60017 -12.9611 5.8215 -1.00486 -12.8358 7 -2.02067 -12.9035 4.71397 -1.58108 -13 4.64299 -4.87067e-15 -12.6056 4.78495 -3.17778
 4.11685 5.89248 12.3309 5.61032 5.8215 11.7271 4.66796 7 12.1265 5.08249 4.71397 11.9653 6.5 4.64299 11.2583 3.55077 4.78495 12.5057
 8.61813 5.89229 9.73282 7.82008 4.71378 10.3849 9.05314 4.78457 9.32956 7.34923 5.8215 10.7233 6.5 4.64299 11.2583 8.16502 7 10.1081
 8.61867 5.89223 -9.73234 7.34954 5.8215 -10.7231 8.16555 7 -10.1077 7.82033 4.71373 -10.3847 6.5 4.64299 -11.2583 9.05361 4.78446 -9.3291
 19.3317 7.37171 -5 18.157 6.02487 -5 18.1461 7.44539 -5 16.9714 6.09855 -5 16.9822 4.67803 -5 16.9605 7.51907 -5
 -13.996 7.37171 -14.2418 -13.4086 6.02487 -13.2244 -13.4032 7.44539 -13.215 -12.8158 6.09855 -12.1977 -12.8212 4.67803 -12.207 -12.8104 7.51907 -12.1883
 -5.33574 7.37171 19.2418 -4.74837 6.02487 18.2244 -4.74294 7.44539 18.215 -4.15557 6.09855 17.1977 -4.16099 4.67803 17.207 -4.15015 7.51907 17.1883
 -9.183 0 -3.95885 -10.3354 0 -5.01685 -8.68026 0 -4.96519 -9.76959 0 -6.00909 -11.4799 0 -6.08617 -8.06752 0 -5.90891
 -1.08351 0 -9.94113 -0.316973 0 -11.4653 0.0401433 0 -9.99992 0.821734 0 -11.4592 0.469168 0 -12.985 1.16303 0 -9.93214
 8.01997 0 -5.97328 9.51218 0 -6.44269 8.64011 0 -5.03472 10.0886 0 -5.45656 11.0102 0 -6.89957 9.15102 0 -4.03222
 1.16303 0 9.93214 0.822982 0 11.4592 0.0401433 0 9.99992 -0.319227 0 11.4653 0.469168 0 12.985 -1.08351 0 9.94113
 -8.06752 0 5.90891 -9.77072 0 6.00714 -8.68026 0 4.96519 -10.3348 0 5.01794 -11.4799 0 6.08617 -9.183 0 3.95885
 9.15102 0 4.03222 10.0875 0 5.45852 8.64011 0 5.03472 9.51281 0 6.44161 11.0102 0 6.89957 8.01997 0 5.97328
 -20.4094 7.09297 25.3502 -19.6613 6.97248 24.0543 -20.2507 5.85245 25.0753 -19.5026 5.73195 23.7795 -18.9131 6.85198 22.7585 -20.0921 4.61192 24.8005
 -11.7492 7.09297 -30.3502 -11.001 6.97248 -29.0543 -11.5905 5.85245 -30.0753 -10.8423 5.73195 -28.7795 -10.2529 6.85198 -27.7585 -11.4318 4.61192 -29.8005
 -4.15015 7.51907 17.1883 -3.55046 7.10817 16.1496 -3.82614 8.75953 16.6271 -3.22646 8.34863 15.5884 -2.95078 6.69727 15.1109 -3.50213 10 16.0659
 -12.8104 7.51907 -12.1883 -12.2107 7.10817 -11.1496 -12.4864 8.75953 -11.6271 -11.8867 8.34863 -10.5884 -11.611 6.69727 -10.1109 -12.1624 10 -11.0659
 16.9605 7.51907 -5 15.7612 7.10817 -5 16.3125 8.75953 -5 15.1132 8.34863 -5 14.5618 6.69727 -5 15.6645 10 -5
 14.438 10 -2.65207 15.4156 10 -1.20728 15.6993 10 -2.58557 16.6769 10 -1.14078 16.3933 10 0.237514 16.9605 10 -2.51907
 -9.51574 10 -11.1776 -8.75334 10 -12.7467 -10.0888 10 -12.3032 -9.3264 10 -13.8722 -7.99094 10 -14.3157 -10.6619 10 -13.4287
 -4.92223 10 13.8297 -6.66228 10 13.954 -5.61046 10 14.8887 -7.35051 10 15.013 -8.40233 10 14.0782 -6.2987 10 15.9478
 37.8266 7.58243 5 37.8211 5.83613 5 38.9633 6.82 5 38.4095 7.21223 3.56589 37.2457 7.93298 3.56589 36.6565 6.55321 5 37.8399 7.58125 2.27594 36.6789 4.85227 5 36.6341 8.25416 5
 26 0 -5 26 1.29232 -5 27.3683 0.111216 -5 26 0 -3.72334 27.439 0.12133 -3.72334 27.3685 1.23562 -5 28.7371 0.00638008 -5 26 2.46486 -5 26 0 -2.56387
 26 0 -3.72334 24.5184 0 -5 26 0 -5 26 1.29232 -5 24.5184 1.23243 -5 24.5184 0 -3.78193 26 2.46486 -5 23.0368 0 -5 26 0 -2.56387
 -8.66987 0 25.0167 -8.66987 1.29232 25.0167 -9.35401 0.111216 26.2016 -9.77549 0 24.3783 -10.495 0.12133 25.6246 -9.35414 1.23562 26.2018 -10.0384 0.00638008 27.387 -8.66987 2.46486 25.0167 -10.7796 0 23.7986
 -9.77549 0 24.3783 -7.92908 0 23.7336 -8.66987 0 25.0167 -8.66987 1.29232 25.0167 -7.92908 1.23243 23.7336 -8.98396 0 23.1245 -8.66987 2.46486 25.0167 -7.1883 0 22.4505 -10.7796 0 23.7986
 -17.3301 0 -20.0167 -17.3301 1.29232 -20.0167 -18.0143 0.111216 -21.2016 -16.2245 0 -20.655 -16.944 0.12133 -21.9012 -18.0144 1.23562 -21.2018 -18.6987 0.00638008 -22.387 -17.3301 2.46486 -20.0167 -15.2204 0 -21.2347
 -16.2245 0 -20.655 -16.5893 0 -18.7336 -17.3301 0 -20.0167 -17.3301 1.29232 -20.0167 -16.5893 1.23243 -18.7336 -15.5345 0 -19.3426 -17.3301 2.46486 -20.0167 -15.8485 0 -17.4505 -15.2204 0 -21.2347
 26 0 5 26 0 3.70932 27.3683 0.111216 5 26 1.27892 5 27.3685 1.22333 5 27.439 0.12133 3.70932 28.7371 0.00638008 5 26 0 2.53815 26 2.44027 5
 26 1.27892 5 24.5184 0 5 26 0 5 26 0 3.70932 24.5184 0 3.76908 24.5184 1.22014 5 26 0 2.53815 23.0368 0 5 26 2.44027 5
 -17.3301 0 20.0167 -16.2124 0 20.662 -18.0143 0.111216 21.2016 -17.3301 1.27892 20.0167 -18.0144 1.22333 21.2018 -16.9319 0.12133 21.9082 -18.6987 0.00638008 22.387 -15.1981 0 21.2476 -17.3301 2.44027 20.0167
 -17.3301 1.27892 20.0167 -16.5893 0 18.7336 -17.3301 0 20.0167 -16.2124 0 20.662 -15.5233 0 19.349 -16.5893 1.22014 18.7336 -15.1981 0 21.2476 -15.8485 0 17.4505 -17.3301 2.44027 20.0167
 -8.66987 0 -25.0167 -9.78764 0 -24.3713 -9.35401 0.111216 -26.2016 -8.66987 1.27892 -25.0167 -9.35414 1.22333 -26.2018 -10.5072 0.12133 -25.6176 -10.0384 0.00638008 -27.387 -10.8019 0 -23.7857 -8.66987 2.44027 -25.0167
 -8.66987 1.27892 -25.0167 -7.92908 0 -23.7336 -8.66987 0 -25.0167 -9.78764 0 -24.3713 -8.9951 0 -23.1181 -7.92908 1.22014 -23.7336 -10.8019 0 -23.7857 -7.1883 0 -22.4505 -8.66987 2.44027 -25.0167
 -1.66987 4.65674 -12.8923 -0.201692 3.67828 -12.9984 -1.66987 3.48059 -12.8923 -0.201692 2.50214 -12.9984 1.27036 2.69983 -12.9378 -1.66987 2.30445 -12.8923
 -10.3301 4.65674 7.8923 -11.1561 3.67828 6.67389 -10.3301 3.48059 7.8923 -11.1561 2.50214 6.67389 -11.8396 2.69983 5.36872 -10.3301 2.30445 7.8923
 12 4.65674 5 11.3575 3.67817 6.32521 12 3.48059 5 11.3575 2.50203 6.32521 10.5684 2.69961 7.57029 12 2.30445 5
 -10.3301 2.30274 -7.8923 -11.156 2.50143 -6.67406 -10.3301 3.48194 -7.8923 -11.156 3.68064 -6.67406 -11.8395 2.70013 -5.3691 -10.3301 4.66114 -7.8923
 -1.66987 2.30274 12.8923 -0.201898 2.50143 12.9984 -1.66987 3.48194 12.8923 -0.201898 3.68064 12.9984 1.26995 2.70013 12.9378 -1.66987 4.66114 12.8923
 12 2.30274 -5 11.3575 2.50129 -6.32506 12 3.48194 -5 11.3575 3.68049 -6.32506 10.5686 2.69983 -7.57 12 4.66114 -5
 -27.1738 -3.20498 37.0665 -26.4599 -3.27796 35.8299 -27.3109 -4.54596 37.3038 -26.016 -4.0403 37.9308 -25.8591 -2.70988 37.6589 -26.297 -1.94966 35.5477 -24.8438 -3.52997 38.4815 -25.6089 -2.00996 34.3559 -26.985 -1.88936 36.7395
 -18.5136 -3.20498 -42.0664 -17.8023 -3.2717 -40.8345 -18.6506 -4.54596 -42.3038 -19.841 -4.0403 -41.4959 -19.684 -2.70988 -41.224 -17.6394 -1.9434 -40.5523 -20.904 -3.52997 -40.7561 -16.954 -1.99743 -39.3652 -18.3248 -1.88936 -41.7395
 -8.06752 0 -5.90891 -9.19956 0 -6.89942 -7.38438 0 -6.74321 -8.46213 0 -7.71803 -10.3301 0 -7.89231 -6.62475 0 -7.49084
 -3.17489 0 -9.48262 -2.45016 0 -11.1875 -2.1476 0 -9.76667 -1.37562 0 -11.4168 -1.66987 0 -12.8923 -1.08351 0 -9.94113
 9.15102 0 -4.03222 10.5749 0 -4.51734 9.53198 0 -3.02346 10.9151 0 -3.46941 12 0 -5 9.79963 0 -1.99178
 -1.08351 0 9.94113 -1.3753 0 11.4168 -2.1476 0 9.76667 -2.45294 0 11.1874 -1.66987 0 12.8923 -3.17489 0 9.48262
 -6.62475 0 7.49084 -8.46355 0 7.71563 -7.38438 0 6.74321 -9.1994 0 6.8997 -10.3301 0 7.89231 -8.06752 0 5.90891
 9.79963 0 1.99178 10.9137 0 3.47184 9.53198 0 3.02346 10.575 0 4.51706 12 0 5 9.15102 0 4.03222
 -3.9341 10.8892 -6.81407 -5.47273 10.2036 -7.05107 -4.90489 11.1366 -5.88684 -6.38539 10.3192 -5.88481 -7.04802 10 -7.09405 -5.8581 11.2591 -4.81624
 -3.9341 10.8892 6.81407 -3.37004 10.2036 8.26506 -2.64571 11.1366 7.19118 -1.9037 10.3192 8.47232 -2.61962 10 9.65078 -1.24193 11.2591 7.48138
 7.86821 10.8892 -1.08892e-16 8.84277 10.2036 -1.21399 7.5506 11.1366 -1.30435 8.28908 10.3192 -2.58752 9.66763 10 -2.55674 7.10002 11.2591 -2.66516
 -1.24145 0 -6.88904 -1.67208 0 -5.16917 -2.42395 0 -6.56692 -2.75 0 -4.76314 -2 0 -3.4641 -3.5 0 -6.06218
 -5.34536 13 -4.51964 -3.64059 13 -4.03265 -4.47515 13 -5.38266 -2.75 13 -4.76314 -2 13 -3.4641 -3.5 13 -6.06218
 6.5868 13 -2.36939 5.31268 13 -1.13652 6.8991 13 -1.18426 5.5 13 -1.83691e-16 4 13 0 7 13 -3.67382e-16
 -3.5 0 -6.06218 -2.75 0 -4.76314 -4.47515 0 -5.38266 -3.64991 0 -4.01689 -2 0 -3.4641 -5.34536 0 -4.51964
 -3.5 13 -6.06218 -2.75 13 -4.76314 -2.42395 13 -6.56692 -1.65377 13 -5.16936 -2 13 -3.4641 -1.24145 13 -6.88904
 -3.5 13 6.06218 -2.75 13 4.76314 -4.47515 13 5.38266 -3.64991 13 4.01689 -2 13 3.4641 -5.34536 13 4.51964
 -3.5 0 6.06218 -2.75 0 4.76314 -2.42395 0 6.56692 -1.65377 0 5.16936 -2 0 3.4641 -1.24145 0 6.88904
 7 0 0 5.5 0 0 6.8991 0 -1.18426 5.30369 0 -1.15247 4 0 0 6.5868 0 -2.36939
 7 13 -3.67382e-16 5.5 13 -1.83691e-16 6.8991 13 1.18426 5.30369 13 1.15247 4 13 0 6.5868 13 2.36939
 -1.24145 13 6.88904 -1.67208 13 5.16917 -2.42395 13 6.56692 -2.75 13 4.76314 -2 13 3.4641 -3.5 13 6.06218
 -5.34536 0 4.51964 -3.64059 0 4.03265 -4.47515 0 5.38266 -2.75 0 4.76314 -2 0 3.4641 -3.5 0 6.06218
 6.5868 0 2.36939 5.31268 0 1.13652 6.8991 0 1.18426 5.5 0 0 4 0 0 7 0 0
 -5.85962 11.2605 4.8128 -6.38416 10.3197 5.88461 -4.90544 11.1375 5.88541 -5.47702 10.2038 7.04728 -7.04802 10 7.09405 -3.9341 10.8892 6.81407
 -1.2382 11.2605 -7.48098 -1.90414 10.3197 -8.47115 -2.64419 11.1375 -7.19094 -3.36461 10.2038 -8.26687 -2.61962 10 -9.65078 -3.9341 10.8892 -6.81407
 7.09781 11.2605 2.6682 8.28829 10.3197 2.58655 7.54963 11.1375 1.30554 8.84163 10.2038 1.2196 9.66763 10 2.55674 7.86821 10.8892 -1.08892e-16
 -17.4611 1.82662 40.2435 -18.9221 1.24094 39.8079 -17.7969 0.634074 40.8252 -16.9818 0.656068 39.4133 -16.6232 1.82069 38.7923 -18.5619 2.40496 39.184 -16.1666 0.678063 38.0013 -19.8998 1.83048 38.8408 -17.0799 2.96332 39.5832
 -11.8395 2.70013 -5.3691 -11.156 2.50143 -6.67406 -11.6681 1.35007 -5.73188 -10.9445 1.15137 -7.01563 -10.3301 2.30274 -7.8923 -11.4799 0 -6.08617
 1.26995 2.70013 12.9378 -0.201898 2.50143 12.9984 0.870122 1.35007 12.9708 -0.603485 1.15137 12.986 -1.66987 2.30274 12.8923 0.469168 0 12.985
 0.469168 0 -12.985 -0.603485 1.15222 -12.986 0.870327 1.34992 -12.9708 -0.201692 2.50214 -12.9984 -1.66987 2.30445 -12.8923 1.27036 2.69983 -12.9378
 -11.4799 0 6.08617 -10.9445 1.15222 7.01563 -11.6682 1.34992 5.73169 -11.1561 2.50214 6.67389 -10.3301 2.30445 7.8923 -11.8396 2.69983 5.36872
 10.5686 2.69983 -7.57 11.3575 2.50129 -6.32506 10.7971 1.34992 -7.24034 11.5475 1.15137 -5.97113 12 2.30274 -5 11.0102 0 -6.89957
 44.8301 -0.60096 2.22021 44.3504 0.458178 1.94746 44.5575 0.0250022 3.53531 44.0368 1.0592 3.23684 43.8013 1.47475 1.67881 44.2542 0.634074 5
 -7 0 -2.39283e-15 -5.5 0 -1.88429e-15 -6.89803 0 1.19046 -5.31067 0 1.14224 -4 0 -1.37574e-15 -6.58243 0 2.38151
 3.5 0 6.06218 2.75 0 4.76314 4.47998 0 5.37864 3.64455 0 4.02805 2 0 3.4641 5.35366 0 4.5098
 3.5 13 6.06218 2.75 13 4.76314 2.41805 13 6.5691 1.66612 13 5.1703 2 13 3.4641 1.22877 13 6.89131
 5.35366 0 -4.5098 3.65068 0 -4.01769 4.47998 0 -5.37864 2.75 0 -4.76314 2 0 -3.4641 3.5 0 -6.06218
 5.35366 13 4.5098 3.65068 13 4.01769 4.47998 13 5.37864 2.75 13 4.76314 2 13 3.4641 3.5 13 6.06218
 1.22877 0 6.89131 1.65408 0 5.17042 2.41805 0 6.5691 2.75 0 4.76314 2 0 3.4641 3.5 0 6.06218
 3.5 13 -6.06218 2.75 13 -4.76314 4.47998 13 -5.37864 3.64455 13 -4.02805 2 13 -3.4641 5.35366 13 -4.5098
 3.5 0 -6.06218 2.75 0 -4.76314 2.41805 0 -6.5691 1.66612 0 -5.1703 2 0 -3.4641 1.22877 0 -6.89131
 -7 13 -1.94874e-15 -5.5 13 -1.66224e-15 -6.89803 13 -1.19046 -5.31067 13 -1.14224 -4 13 -1.37574e-15 -6.58243 13 -2.38151
 -6.58243 0 -2.38151 -5.30476 0 -1.15274 -6.89803 0 -1.19046 -5.5 0 -1.88429e-15 -4 0 -1.37574e-15 -7 0 -2.39283e-15
 -6.58243 13 2.38151 -5.30476 13 1.15274 -6.89803 13 1.19046 -5.5 13 -1.66224e-15 -4 13 -1.37574e-15 -7 13 -1.94874e-15
 1.22877 13 -6.89131 1.65408 13 -5.17042 2.41805 13 -6.5691 2.75 13 -4.76314 2 13 -3.4641 3.5 13 -6.06218
 11.0102 0 6.89957 11.5475 1.15222 5.97113 10.797 1.34981 7.24049 11.3575 2.50203 6.32521 12 2.30445 5 10.5684 2.69961 7.57029
 -21.9501 5.88985 33.6618 -20.5372 5.93044 34.4236 -21.2418 6.62385 33.0322 -19.8427 6.66124 33.7832 -19.1635 5.97086 35.1625 -20.5158 7.29608 32.3622
 36.6341 8.25416 5 37.2457 7.93298 3.56589 36.2483 8.45262 3.17979 36.8673 8.1403 1.92242 37.8399 7.58125 2.27594 35.8544 8.63484 1.57568
 15.8654 0 5 14.8524 1.56423 5 14.5242 0 5 14.8795 0 3.60554 16.2208 0 3.60554 16.1936 1.56423 5 15.2349 0 2.21108 15.1806 3.12845 5 17.2066 0 5
 -3.60257 0 -16.2398 -3.09607 1.56423 -15.3626 -2.93195 0 -15.0783 -4.31728 0 -14.6888 -4.98789 0 -15.8504 -3.76669 1.56423 -16.5241 -5.7026 0 -14.2993 -3.2602 3.12845 -15.6468 -4.27319 0 -17.4014
 -15.2211 10 -21.2343 -14.2661 10 -20.1135 -14.1033 10 -21.8797 -13.1751 10 -20.7435 -13.3112 10 -18.9927 -13.0389 10 -22.4942
 26 10 -2.56467 24.5519 10 -2.29808 26 10 -1.27397 24.5519 10 -1.03821 23.1038 10 -2.03148 26 10 -0.0449491
 -10.7789 10 23.799 -10.2858 10 22.4116 -11.8967 10 23.1536 -11.3768 10 21.7817 -9.79259 10 21.0242 -12.9611 10 22.5391
 -19.0846 4.03415 37.4445 -19.514 2.96265 38.1805 -18.1536 3.50697 38.4854 -18.5619 2.40496 39.184 -19.8998 1.83048 38.8408 -17.0799 2.96332 39.5832
 -22.885 4.0344 -35.2502 -23.3079 2.96279 -35.99 -24.2522 3.50711 -34.9643 -24.6534 2.40496 -35.6671 -23.6873 1.83048 -36.6542 -25.7401 2.96332 -34.5832
 -26.1213 1.82662 -35.2435 -25.2501 1.7942 -33.7344 -25.7401 2.96332 -34.5832 -24.6534 2.40496 -35.6671 -25.0136 1.24094 -36.291 -25.6086 0.629577 -34.3554 -23.6873 1.83048 -36.6542 -24.76 0.625081 -32.8857 -26.4572 0.634074 -35.8252
 -23.2434 7.58243 -30.2588 -22.6181 6.35397 -29.1758 -22.6472 8.25416 -29.226 -21.6662 7.9357 -30.4931 -22.2482 7.21532 -31.5012 -23.2005 5.63689 -30.1844 -20.809 7.58707 -31.6688 -22.5891 4.45378 -29.1255 -23.8118 6.82 -31.2432
 46 -9.99999 -1.27397 44.4091 -10 -2.503 46 -9.99999 -2.56467 46.1738 -8.46467 -2.29917 46.1738 -8.46467 -1.02554 44.4091 -10 -1.21644 46.2114 -7.09556 -2.03802 42.8006 -10 -2.44157 46 -9.99999 -0.0449491
 34.4478 -3.48764 5 35.6689 -2.14023 5 33.5564 -2.44356 5 34.0227 -2.95043 3.5138 34.832 -4.058 3.5138 36.4728 -3.24777 5 34.4495 -3.48883 2.18104 37.7813 -1.83691 5 35.1642 -4.65864 5
 -20.5863 -1.55224 25.6565 -20.7196 0.400598 25.8874 -20.0008 -0.835778 24.6424 -19.014 -1.16802 25.9057 -19.5678 -1.97729 26.8649 -21.2734 -0.403291 26.8465 -18.1444 -1.55046 27.065 -21.4384 1.63697 27.1323 -21.1083 -2.44356 26.5607
 -12.8937 -3.48764 -32.3326 -13.5091 -2.26902 -33.3985 -12.4481 -2.44356 -31.5607 -13.9684 -2.95024 -31.2212 -14.3731 -4.05792 -31.9221 -13.9111 -3.37657 -34.0947 -15.3362 -3.4887 -30.9244 -14.5702 -2.09449 -35.2363 -13.252 -4.65864 -32.9531
 -19.1031 -10 -30.54 -19.7884 -10 -31.9552 -18.0392 -10 -31.1543 -18.8828 -8.46014 -30.8056 -19.9812 -8.46014 -30.1715 -20.8986 -10 -31.3142 -19.6108 -7.05644 -30.2063 -21.5855 -10 -32.7466 -20.2204 -10 -29.895
 -7.43167 11.0228 2.4048 -8.06322 10.2488 3.6831 -6.72136 11.1903 3.65719 -7.1945 10.3115 4.91707 -8.66025 10 5 -5.85962 11.2605 4.8128
 1.63322 11.0228 -7.63841 0.841955 10.2488 -8.8245 0.193461 11.1903 -7.64946 -0.661053 10.3115 -8.68916 -6.36971e-08 10 -10 -1.2382 11.2605 -7.48098
 5.79835 11.0228 5.23371 7.22122 10.2488 5.14146 6.52784 11.1903 3.99233 7.85555 10.3115 3.7721 8.66025 10 5 7.09781 11.2605 2.6682
 -10.7796 0 23.7986 -11.8282 0.119925 24.9675 -11.8969 0 23.1535 -12.9277 0.119925 24.3327 -12.8031 -0.0339412 26.0215 -12.9608 0 22.5393
 36 -10 -1.27376 37.5682 -10 -1.21444 36 -10 -0.0452634 36.1199 -8.46337 -0.970648 36.1199 -8.46337 -2.24025 37.5682 -10 -2.50028 35.9661 -7.06312 -1.92297 39.1522 -10 -2.43695 36 -10 -2.56387
 -5.8581 11.2591 -4.81624 -7.19075 10.3114 -4.92269 -6.71896 11.1904 -3.66129 -8.0666 10.2483 -3.67839 -8.66025 10 -5 -7.43176 11.0231 -2.40368
 -1.24193 11.2591 7.48138 -0.667796 10.3114 8.68871 0.18871 11.1904 7.64943 0.847726 10.2483 8.82508 -6.36971e-08 10 10 1.63423 11.0231 7.63794
 7.10002 11.2591 -2.66516 7.85854 10.3114 -3.76604 6.5302 11.1904 -3.9882 7.21883 10.2484 -5.14674 8.66025 10 -5 5.79743 11.0231 -5.23435
 37.8399 7.58125 2.27594 37.8369 7.5831 0.618927 36.8673 8.1403 1.92242 36.8642 8.14195 0.287185 37.8339 7.58494 -0.986121 35.8544 8.63484 1.57568
 -17.4611 1.82662 -40.2435 -19.0342 2.1911 -39.0756 -17.0799 2.96332 -39.5832 -16.6043 1.83508 -38.7595 -16.9629 0.670455 -39.3805 -19.3856 1.01577 -39.6843 -16.1288 0.706837 -37.9359 -20.7581 1.38933 -38.65 -17.797 0.634074 -40.8252
 9.05314 4.78457 9.32956 7.82008 4.71378 10.3849 8.77566 3.59172 9.59103 7.51903 3.52093 10.6049 6.5 4.64299 11.2583 8.49192 2.39887 9.84313
 8.49205 2.39889 -9.84302 7.5191 3.52094 -10.6049 8.77596 3.59168 -9.59075 7.82033 4.71373 -10.3847 6.5 4.64299 -11.2583 9.05361 4.78446 -9.3291
 1.55541 4.93615 12.9066 -0.0579031 4.79865 12.9999 1.41281 3.81814 12.923 -0.201898 3.68064 12.9984 -1.66987 4.66114 12.8923 1.26995 2.70013 12.9378
 -11.9552 4.93615 -5.10629 -11.2293 4.79865 -6.55008 -11.8981 3.81814 -5.23797 -11.156 3.68064 -6.67406 -10.3301 4.66114 -7.8923 -11.8395 2.70013 -5.3691
 -11.8396 2.69983 5.36872 -11.1561 3.67828 6.67389 -11.8985 3.81784 5.23705 -11.2297 4.79629 6.54939 -10.3301 4.65674 7.8923 -11.9558 4.93585 5.10482
 10.3989 4.93363 -7.80143 11.2868 4.79739 -6.45039 10.4844 3.81673 -7.68622 11.3575 3.68049 -6.32506 12 4.66114 -5 10.5686 2.69983 -7.57
 1.27036 2.69983 -12.9378 -0.201692 3.67828 -12.9984 1.41381 3.81784 -12.9229 -0.0571031 4.79629 -12.9999 -1.66987 4.65674 -12.8923 1.55699 4.93585 -12.9064
 39.114 -8.77128 -5 37.8811 -7.40275 -5 39.7558 -7.54257 -5 37.2392 -8.63147 -5 36.0064 -7.26293 -5 38.4721 -10 -5
 -15.2269 -8.77128 36.3737 -14.6104 -7.40275 35.306 -15.5478 -7.54257 36.9296 -14.2895 -8.63147 34.7501 -13.6731 -7.26293 33.6824 -14.9059 -10 35.8178
 39.6864 6.2616 1.52572 38.7839 6.95183 1.89697 39.3287 6.54609 3.15213 38.4095 7.21223 3.56589 37.8399 7.58125 2.27594 38.9633 6.82 5
 26 10 -0.0449491 27.5383 10.174 -1.03698 26 10 -1.27397 27.5383 10.174 -2.31135 28.9098 10.2113 -2.062 26 10 -2.56467
 -12.9611 10 22.5391 -12.8711 10.174 24.3673 -11.8967 10 23.1536 -11.7674 10.174 25.0045 -12.6692 10.2113 26.0676 -10.7789 10 23.799
 10.5684 2.69961 7.57029 11.3575 3.67817 6.32521 10.4838 3.81706 7.68699 11.2864 4.79563 6.45106 12 4.65674 5 10.398 4.93452 7.80267
 -12.6058 4.78487 3.17701 -12.9035 4.71393 1.5807 -12.6936 3.59191 2.80588 -12.9436 3.52098 1.20989 -13 4.64299 -4.87067e-15 -12.7701 2.39896 2.43402
 3.55154 4.78487 -12.5055 5.08285 4.71393 -11.9651 3.91683 3.59191 -12.3959 5.42399 3.52098 -11.8144 6.5 4.64299 -11.2583 4.27713 2.39896 -12.2762
 -14.0505 -1.45104 -29.2683 -14.7353 -2.38488 -30.1678 -13.3139 -1.92187 -30.4002 -13.9684 -2.95024 -31.2212 -15.3362 -3.4887 -30.9244 -12.4481 -2.44356 -31.5607
 32.0431 7.32911 5 30.5929 7.10977 5 31.7013 5.93696 5 30.251 5.71762 5 29.1426 6.89042 5 31.3594 4.54481 5
 -12.7701 2.39902 -2.43422 -12.9436 3.52101 -1.20999 -12.6935 3.59199 -2.80636 -12.9035 4.71397 -1.58108 -13 4.64299 -4.87067e-15 -12.6056 4.78495 -3.17778
 4.27694 2.39902 12.2763 5.4239 3.52101 11.8145 3.91636 3.59199 12.3961 5.08249 4.71397 11.9653 6.5 4.64299 11.2583 3.55077 4.78495 12.5057
 -11.0802 1.90671 -29.1914 -11.256 3.25932 -29.4959 -10.4782 2.80372 -28.1488 -10.6541 4.15633 -28.4534 -11.4318 4.61192 -29.8005 -9.8763 3.70073 -27.1063
 39.6864 6.2616 1.52572 38.7811 6.95387 0.263101 38.7839 6.95183 1.89697 37.8369 7.5831 0.618927 37.8339 7.58494 -0.986121 37.8399 7.58125 2.27594
 -18.1444 -1.55046 27.065 -18.7967 -2.50251 27.9589 -19.5678 -1.97729 26.8649 -20.1928 -3.01166 27.6878 -19.3653 -3.61931 28.7064 -21.1083 -2.44356 26.5607
 33.5564 -2.44356 5 32.9883 -1.92525 3.64352 34.0227 -2.95043 3.5138 33.4975 -2.38851 2.29892 32.3807 -1.45687 2.41768 34.4495 -3.48883 2.18104
 -15.2269 -8.77128 -36.3737 -14.2895 -8.63147 -34.7501 -14.9059 -10 -35.8178 -14.6104 -7.40275 -35.306 -13.6731 -7.26293 -33.6824 -15.5478 -7.54257 -36.9296
 9.6718 0 8.66942 10.1385 1.34981 8.13701 9.10216 1.19944 9.28174 9.59093 2.54924 8.77576 10.5684 2.69961 7.57029 8.49192 2.39887 9.84313
 8.49205 2.39889 -9.84302 9.59111 2.54936 -8.77557 9.10222 1.19945 -9.28168 10.1386 1.34992 -8.13688 10.5686 2.69983 -7.57 9.6718 0 -8.66942
 -12.3433 0 4.04307 -12.1154 1.34992 4.71344 -12.5889 1.19948 3.24359 -12.3951 2.5494 3.9195 -11.8396 2.69983 5.36872 -12.7701 2.39896 2.43402
 2.67023 0 -12.7111 1.97575 1.34992 -12.849 3.4854 1.19948 -12.5241 2.80314 2.5494 -12.6942 1.27036 2.69983 -12.9378 4.27713 2.39896 -12.2762
 -13.3663 8.83113 -33.1512 -13.3771 7.08333 -33.1698 -13.9869 8.25416 -34.226 -14.9968 8.5468 -32.9664 -14.3642 9.06912 -31.8707 -12.7462 7.61118 -32.0771 -15.863 8.81054 -31.7714 -12.7673 5.91251 -32.1135 -12.7252 9.30984 -32.0407
 4.27694 2.39902 12.2763 2.80284 2.54958 12.6943 3.4853 1.19951 12.5241 1.97555 1.35007 12.849 1.26995 2.70013 12.9378 2.67023 0 12.7111
 -12.7701 2.39902 -2.43422 -12.395 2.54958 -3.91979 -12.5888 1.19951 -3.24368 -12.1153 1.35007 -4.71363 -11.8395 2.70013 -5.3691 -12.3433 0 -4.04307
 41.0421 5.04206 -5 40.6854 5.38257 -3.20428 41.5142 4.54495 -3.5212 41.1738 4.90211 -1.90496 40.3227 5.71687 -1.61994 41.9702 4.03415 -2.19451
 41.1738 4.90211 -1.90496 41.97 4.03447 -0.567257 41.9702 4.03415 -2.19451 41.1735 4.90241 -0.294842 41.9697 4.03479 1.01379 40.3227 5.71687 -1.61994
 44.8301 -0.60096 2.22021 44.8542 -0.659857 0.631442 44.3504 0.458178 1.94746 44.3783 0.401596 0.37507 44.878 -0.718881 -0.90848 43.8013 1.47475 1.67881
 12 4.66114 -5 13.557 3.84188 -5 12 3.48194 -5 13.557 2.66268 -5 15.1139 3.02262 -5 12 2.30274 -5
 -1.66987 4.66114 12.8923 -2.44835 3.84188 14.2407 -1.66987 3.48194 12.8923 -2.44835 2.66268 14.2407 -3.22684 3.02262 15.589 -1.66987 2.30274 12.8923
 -10.3301 4.66114 -7.8923 -11.1086 3.84188 -9.24067 -10.3301 3.48194 -7.8923 -11.1086 2.66268 -9.24067 -11.8871 3.02262 -10.589 -10.3301 2.30274 -7.8923
 -3.5 0 -6.06218 -3.37043 0 -7.76504 -2.42395 0 -6.56692 -2.20811 0 -8.18547 -3.17489 0 -9.48262 -1.24145 0 -6.88904
 6.5868 0 -2.36939 8.19134 0 -2.18321 6.8991 0 -1.18426 8.41177 0 -0.960467 9.79963 0 -1.99178 7 0 0
 -5.34536 0 -4.51964 -5.98639 0 -6.0023 -4.47515 0 -5.38266 -5.03767 0 -6.80457 -6.62475 0 -7.49084 -3.5 0 -6.06218
 -1.24145 0 6.88904 -2.20495 0 8.18551 -2.42395 0 6.56692 -3.37409 0 7.76504 -3.17489 0 9.48262 -3.5 0 6.06218
 -3.5 0 6.06218 -5.03951 0 6.8014 -4.47515 0 5.38266 -5.98477 0 6.00502 -6.62475 0 7.49084 -5.34536 0 4.51964
 7 0 0 8.40993 0 0.963642 6.8991 0 1.18426 8.19288 0 2.18046 9.79963 0 1.99178 6.5868 0 2.36939
 -14.4289 8.76224 14.9917 -15.2646 8.44569 16.4391 -14.7522 10 15.5516 -14.9413 7.20793 15.8791 -15.777 6.89137 17.3266 -14.1056 7.52448 14.4317
 20.1976 8.76224 5 21.2224 7.20793 5 21.869 8.44569 5 19.551 7.52448 5 22.8938 6.89137 5 20.8442 10 5
 -5.76869 8.76224 -19.9917 -6.60438 8.44569 -21.4391 -6.09199 10 -20.5516 -6.28108 7.20793 -20.8791 -7.11676 6.89137 -22.3266 -5.44539 7.52448 -19.4317
 18.645 0 -5 17.76 0 -3.60667 17.2066 0 -5 17.9258 1.37676 -5 19.3643 1.37676 -5 19.1984 0 -3.60667 18.645 2.75351 -5 18.3134 0 -2.21334 20.0835 0 -5
 -13.6526 0 -13.6471 -12.0035 0 -13.5773 -12.9334 0 -12.4014 -13.293 1.37676 -13.0242 -14.0123 1.37676 -14.2699 -12.7227 0 -14.823 -13.6526 2.75351 -13.6471 -11.0735 0 -14.7532 -14.3719 0 -14.8928
 -4.9924 0 18.6471 -5.97681 0 16.7998 -4.27319 0 17.4014 -4.63279 1.37676 18.0242 -5.352 1.37676 19.2699 -6.69602 0 18.0455 -4.9924 2.75351 18.6471 -7.68044 0 16.1981 -5.71161 0 19.8928
 3.5 0 -6.06218 5.02944 0 -6.81171 4.47998 0 -5.37864 5.9818 0 -6.00512 6.60746 0 -7.50609 5.35366 0 -4.5098
 1.22877 0 -6.89131 2.21294 0 -8.18291 2.41805 0 -6.5691 3.38076 0 -7.76148 3.19674 0 -9.47528 3.5 0 -6.06218
 -7 0 -2.39283e-15 -8.41383 0 -0.949772 -6.89803 0 -1.19046 -8.19148 0 -2.17783 -9.8042 0 -1.96918 -6.58243 0 -2.38151
 5.35366 0 4.5098 5.98014 0 6.00791 4.47998 0 5.37864 5.03126 0 6.80857 6.60746 0 7.50609 3.5 0 6.06218
 -6.58243 0 2.38151 -8.19307 0 2.17499 -6.89803 0 1.19046 -8.41202 0 0.952913 -9.8042 0 1.96918 -7 0 -2.39283e-15
 3.5 0 6.06218 3.38439 0 7.76148 2.41805 0 6.5691 2.20968 0 8.18295 3.19674 0 9.47528 1.22877 0 6.89131
 41.9702 4.03415 -2.19451 41.97 4.03447 -0.567257 42.7155 3.1066 -1.78267 42.7152 3.10694 -0.178715 41.9697 4.03479 1.01379 43.3953 2.13312 -1.3795
 -21.9501 5.88985 33.6618 -21.2418 6.62385 33.0322 -22.8193 6.3679 32.4994 -22.0723 7.06266 31.8593 -20.5158 7.29608 32.3622 -23.8118 6.82 31.2432
 -18.4327 -10 -39.2133 -19.1676 -10 -40.619 -17.4474 -10 -40.2197 -20.0583 -10 -39.6985 -20.801 -9.99999 -41.1067 -19.3066 -10 -38.2752
 43.1761 -10 -3.65658 44.4091 -10 -2.503 42.8006 -10 -2.44157 44.7609 -10 -3.72378 46 -9.99999 -2.56467 43.555 -10 -5
 -18.4213 -10 39.2199 -20.0369 -10 39.7109 -19.2858 -10 38.2872 -19.1556 -10 40.626 -20.7789 -9.99999 41.1195 -17.4474 -10 40.2197
 1.16303 0 -9.93214 1.19995 0 -8.41186 0.0401433 0 -9.99992 0.0915649 0 -8.42229 1.22877 0 -6.89131 -1.08351 0 -9.94113
 9.15102 0 -4.03222 7.24511 0 -4.29568 8.64011 0 -5.03472 6.68428 0 -5.24619 5.35366 0 -4.5098 8.01997 0 -5.97328
 -8.06752 0 -5.90891 -7.34272 0 -4.12661 -8.68026 0 -4.96519 -7.88548 0 -3.16566 -6.58243 0 -2.38151 -9.183 0 -3.95885
 -1.08351 0 9.94113 0.0976102 0 8.42229 0.0401433 0 9.99992 1.2012 0 8.41185 1.22877 0 6.89131 1.16303 0 9.93214
 8.01997 0 5.97328 6.68491 0 5.24512 8.64011 0 5.03472 7.24814 0 4.29044 5.35366 0 4.5098 9.15102 0 4.03222
 -9.183 0 3.95885 -7.88486 0 3.16675 -8.68026 0 4.96519 -7.3397 0 4.13185 -6.58243 0 2.38151 -8.06752 0 5.90891
 -24.1033 -9.99999 -39.2002 -24.3329 -10 -37.2212 -25.2211 -9.99999 -38.5548 -25.0371 -8.42037 -38.8653 -23.9367 -8.42037 -39.5007 -23.2211 -10 -37.8632 -24.7863 -7.01421 -39.0479 -23.4363 -10 -35.8715 -23.0389 -9.99999 -39.8147
 -21.8967 -9.99999 40.4742 -20.0369 -10 39.7109 -20.7789 -9.99999 41.1195 -21.1398 -8.42037 41.1155 -22.2403 -8.42037 40.4801 -21.1511 -10 39.0676 -21.4234 -7.01421 40.9895 -19.2858 -10 38.2872 -22.9611 -9.99999 39.8596
 26 0 -2.56387 27.5803 0.11886 -2.18536 26 0 -1.27376 27.5803 0.11886 -0.918921 29.0273 -0.0513277 -1.81534 26 0 -0.0452634
 -16.8969 -10 31.8138 -17.7324 -10 33.1423 -17.9608 -10 31.1995 -17.2636 -8.41972 31.7393 -16.1669 -8.41972 32.3725 -16.6188 -10 33.7852 -16.4022 -6.97265 32.0401 -17.4656 -10 35.1252 -15.7796 -10 32.4588
 -15.2204 0 -21.2347 -15.6822 0.118856 -22.793 -14.1031 0 -21.8798 -14.5855 0.118856 -23.4262 -16.0848 -0.0513791 -24.2316 -13.0392 0 -22.494
 -1.66987 2.30445 -12.8923 -2.46503 2.71645 -14.2696 -1.66987 3.48059 -12.8923 -2.46503 3.89259 -14.2696 -3.2602 3.12845 -15.6468 -1.66987 4.65674 -12.8923
 12 2.30445 5 13.5903 2.71645 5 12 3.48059 5 13.5903 3.89259 5 15.1806 3.12845 5 12 4.65674 5
 -10.3301 2.30445 7.8923 -11.1253 2.71645 9.26957 -10.3301 3.48059 7.8923 -11.1253 3.89259 9.26957 -11.9205 3.12845 10.6468 -10.3301 4.65674 7.8923
 -5.71879 5.03117 19.9052 -4.93989 4.8546 18.5561 -5.52727 6.20144 19.5735 -4.74837 6.02487 18.2244 -4.16099 4.67803 17.207 -5.33574 7.37171 19.2418
 -14.379 5.03117 -14.9052 -13.6001 4.8546 -13.5561 -14.1875 6.20144 -14.5735 -13.4086 6.02487 -13.2244 -12.8212 4.67803 -12.207 -13.996 7.37171 -14.2418
 20.0978 5.03117 -5 18.54 4.8546 -5 19.7148 6.20144 -5 18.157 6.02487 -5 16.9822 4.67803 -5 19.3317 7.37171 -5
 37.8266 7.58243 -5 38.4066 7.21419 -2.8534 38.9633 6.82 -5 37.7943 5.84023 -5 36.6297 6.55731 -5 37.2427 7.9347 -2.8534 36.6254 4.86047 -5 37.8339 7.58494 -0.986121 36.6341 8.25416 -5
 -26.1213 1.82662 35.2435 -24.3271 2.19121 36.0196 -25.7401 2.96332 34.5832 -25.2501 1.7942 33.7344 -25.6086 0.629577 34.3554 -24.6786 1.01589 36.6284 -24.76 0.625081 32.8857 -23.0996 1.38956 37.298 -26.4572 0.634074 35.8252
 -24.7121 -10 -35.5781 -24.3329 -10 -37.2212 -23.4363 -10 -35.8715 -25.6053 -10 -36.9022 -25.2211 -9.99999 -38.5548 -26.1076 -10 -35.2197
 -5.77173 0 14.1066 -7.34923 0 13.2969 -6.13586 0 12.6825 -7.71336 0 11.8728 -8.92672 0 12.4872 -6.5 0 11.2583
 28.4757 3.75814 -5 29.8438 4.46172 -5 29.6224 2.86338 -5 30.9905 3.56696 -5 31.2118 5.1653 -5 30.7692 1.96862 -5
 -25.8024 -7.35893 34.691 -25.0052 -7.45075 33.3103 -25.3261 -8.67946 33.8662 -24.529 -8.77128 32.4854 -24.208 -7.54257 31.9296 -24.8499 -10 33.0413
 -24.8499 -10 -33.0413 -24.529 -8.77128 -32.4854 -25.3261 -8.67946 -33.8662 -25.0052 -7.45075 -33.3103 -24.208 -7.54257 -31.9296 -25.8024 -7.35893 -34.691
 -23.8871 -8.77128 -31.3737 -23.2707 -7.40275 -30.306 -24.208 -7.54257 -31.9296 -22.9497 -8.63147 -29.7501 -22.3333 -7.26293 -28.6824 -23.5662 -10 -30.8178
 -17.1421 -7.3578 -39.691 -16.3449 -7.45018 -38.3103 -16.6659 -8.6789 -38.8661 -15.8687 -8.77128 -37.4854 -15.5478 -7.54257 -36.9296 -16.1897 -10 -38.0413
 -16.1897 -10 38.0413 -15.8687 -8.77128 37.4854 -16.6627 -8.66561 38.8606 -16.3417 -7.4369 38.3047 -15.5478 -7.54257 36.9296 -17.1357 -7.33122 39.6799
 41.0396 -10 -5 40.3977 -8.77128 -5 41.9856 -8.66561 -5 41.3437 -7.4369 -5 39.7558 -7.54257 -5 42.9316 -7.33122 -5
 42.9316 -7.33122 5 41.3437 -7.4369 5 41.9856 -8.66561 5 40.3977 -8.77128 5 39.7558 -7.54257 5 41.0396 -10 5
 -13.0389 10 -22.4942 -14.6781 10.1787 -23.4023 -14.1033 10 -21.8797 -15.7802 10.1787 -22.7659 -16.2547 10.2083 -24.1411 -15.2211 10 -21.2343
 -24.208 -7.54257 31.9296 -24.56 -6.17037 32.5392 -23.7597 -6.38988 31.1529 -24.1116 -5.01769 31.7626 -24.912 -4.79818 33.1488 -23.3113 -5.23719 30.3763
 -23.3113 -5.23719 -30.3763 -24.1116 -5.01769 -31.7626 -23.7597 -6.38988 -31.1529 -24.56 -6.17037 -32.5392 -24.912 -4.79818 -33.1488 -24.208 -7.54257 -31.9296
 -26.985 -1.88936 36.7395 -25.8591 -2.70988 37.6589 -25.3939 -1.48807 37.4917 -24.4302 -2.3001 38.3493 -24.8438 -3.52997 38.4815 -23.9785 -1.08681 38.1416
 -18.3248 -1.88936 -41.7395 -19.684 -2.70988 -41.224 -19.7718 -1.48807 -40.7376 -20.9964 -2.3001 -40.3318 -20.904 -3.52997 -40.7561 -21.0424 -1.08681 -39.8368
 22.1329 10 -5 23.2635 10 -3.51574 23.4232 10 -5 23.1369 8.50098 -5 21.8466 8.50098 -5 21.9732 10 -3.51574 22.8507 7.00196 -5 23.1038 10 -2.03148 20.8426 10 -5
 -15.3966 10 -16.6676 -14.6765 10 -18.3889 -16.0417 10 -17.7851 -15.8986 8.50098 -17.5372 -15.2534 8.50098 -16.4197 -14.0313 10 -17.2715 -15.7555 7.00196 -17.2893 -13.3112 10 -18.9927 -14.7514 10 -15.5502
 -6.73631 10 21.6676 -8.58703 10 21.9046 -7.38146 10 22.7851 -7.23834 8.50098 22.5372 -6.59319 8.50098 21.4197 -7.94187 10 20.7872 -7.09523 7.00196 22.2893 -9.79259 10 21.0242 -6.09115 10 20.5502
 -15.5478 -7.54257 -36.9296 -15.9002 -6.16911 -37.5399 -15.0994 -6.38988 -36.1529 -15.4518 -5.01643 -36.7633 -16.2526 -4.79566 -38.1502 -14.651 -5.23719 -35.3763
 -6.5 0 11.2583 -5.75 0 9.95929 -5.38148 0 11.8338 -4.6456 0 10.4707 -5 0 8.66025 -4.20674 0 12.3005
 -8.54921 0 9.79342 -6.74632 0 9.25636 -7.55767 0 10.5774 -5.75 0 9.95929 -5 0 8.66025 -6.5 0 11.2583
 12.756 0 2.50713 11.3894 0 1.2143 12.9391 0 1.25642 11.5 0 0 10 0 0 13 0 0
 28.645 6.94977 -5 28.5603 5.35396 -5 27.3225 6.0006 -5 27.2378 4.40478 -5 28.4757 3.75814 -5 26 5.05142 -5
 -6.5 0 -11.2583 -5.75 0 -9.95929 -7.55767 0 -10.5774 -6.74506 0 -9.25854 -5 0 -8.66025 -8.54921 0 -9.79342
 13 0 0 11.5 0 0 12.9391 0 -1.25642 11.3907 0 -1.21213 10 0 0 12.756 0 -2.50713
 -4.20674 0 -12.3005 -4.64309 0 -10.4707 -5.38148 0 -11.8338 -5.75 0 -9.95929 -5 0 -8.66025 -6.5 0 -11.2583
 -14.7088 -5.15473 35.4765 -15.4955 -4.95067 36.839 -15.1283 -6.34865 36.203 -15.915 -6.14459 37.5656 -16.2822 -4.74662 38.2016 -15.5478 -7.54257 36.9296
 -24.6971 -10 35.5868 -24.3081 -10 37.2356 -25.5933 -10 36.9092 -23.4087 -10 35.8874 -25.199 -9.99999 38.5676 -26.1076 -10 35.2197
 -18.667 6.94064 -22.3323 -18.6175 5.34939 -22.2465 -17.9986 5.99603 -21.1745 -17.949 4.40478 -21.0887 -18.568 3.75814 -22.1607 -17.3301 5.05142 -20.0167
 -10.0068 6.94064 27.3323 -9.95725 5.34939 27.2465 -9.33833 5.99603 26.1745 -9.28879 4.40478 26.0887 -9.90771 3.75814 27.1607 -8.66987 5.05142 25.0167
 -23.8871 -8.77128 31.3737 -22.9497 -8.63147 29.7501 -23.5662 -10 30.8178 -23.2707 -7.40275 30.306 -22.3333 -7.26293 28.6824 -24.208 -7.54257 31.9296
 39.114 -8.77128 5 37.2392 -8.63147 5 38.4721 -10 5 37.8811 -7.40275 5 36.0064 -7.26293 5 39.7558 -7.54257 5
 45.3098 -1.88936 5 45.479 -2.48047 3.24708 45.0779 -1.24127 3.53531 45.2779 -1.82176 1.95685 45.6377 -3.07068 1.69733 44.8301 -0.60096 2.22021
 -17.4656 -10 35.1252 -16.6188 -10 33.7852 -16.2423 -10 35.4405 -15.4012 -10 34.1223 -15.7796 -10 32.4588 -14.9059 -10 35.8178
 39.1522 -10 -2.43695 37.5682 -10 -2.50028 38.8135 -10 -3.65406 37.2514 -10 -3.72334 36 -10 -2.56387 38.4721 -10 -5
 -4.73686 2.46187 -18.2045 -4.56576 3.94321 -17.9081 -3.99853 2.79516 -16.9257 -3.82743 4.2765 -16.6293 -4.39466 5.42454 -17.6118 -3.2602 3.12845 -15.6468
 18.134 2.46187 5 17.7918 3.94321 5 16.6573 2.79516 5 16.3151 4.2765 5 17.4496 5.42454 5 15.1806 3.12845 5
 -13.0549 5.42454 12.6118 -12.4877 4.2765 11.6293 -13.226 3.94321 12.9081 -12.6588 2.79516 11.9257 -11.9205 3.12845 10.6468 -13.3971 2.46187 13.2045
 43.1676 -10 3.59489 44.7609 -10 3.70986 43.555 -10 5 44.401 -10 2.43363 46 -9.99999 2.53915 42.7838 -10 2.32883
 -18.568 3.75814 -22.1607 -19.2674 4.45323 -23.3722 -19.1571 2.86074 -23.1811 -19.8566 3.55583 -24.3927 -19.9669 5.14832 -24.5837 -19.7463 1.96334 -24.2016
 -3.60257 0 16.2398 -3.75001 1.51131 16.4952 -4.27319 0 17.4014 -5.02246 0 15.754 -4.35184 0 14.5924 -3.07939 1.51131 15.3337 -5.77173 0 14.1066 -3.22684 3.02262 15.589 -2.93195 0 15.0783
 -9.90771 3.75814 27.1607 -10.6095 4.45282 28.3762 -10.4969 2.86074 28.1811 -11.1986 3.55542 29.3966 -11.3112 5.1475 29.5917 -11.0861 1.96334 29.2016
 -14.9059 -10 -35.8178 -15.4133 -10 -34.1153 -16.2521 -10 -35.4349 -16.6389 -10 -33.7736 -15.8019 -10 -32.446 -17.4836 -10 -35.1149
 40.0373 5.9715 5 39.3287 6.54609 3.15213 38.9633 6.82 5 40.3777 5.66732 3.15213 39.6864 6.2616 1.52572 41.0421 5.04206 5
 41.0421 5.04206 5 41.5139 4.54526 2.8687 40.3777 5.66732 3.15213 40.8767 5.19862 1.26847 39.6864 6.2616 1.52572 41.9697 4.03479 1.01379
 39.7558 -7.54257 5 40.4504 -6.13758 5 38.8564 -6.35859 5 39.551 -4.95361 5 41.145 -4.73259 5 37.957 -5.17462 5
 37.957 -5.17389 -5 39.5504 -4.94821 -5 38.8564 -6.35823 -5 40.4498 -6.13255 -5 41.1438 -4.72253 -5 39.7558 -7.54257 -5
 -6.58243 0 -2.38151 -7.34272 0 -4.12661 -6.05893 0 -3.50562 -6.70346 0 -5.21982 -8.06752 0 -5.90891 -5.34536 0 -4.51964
 5.35366 0 -4.5098 7.24511 0 -4.29568 6.06542 0 -3.49438 7.87222 0 -3.19546 9.15102 0 -4.03222 6.5868 0 -2.36939
 -1.24145 0 -6.88904 -1.16731 0 -8.41529 -0.00648884 0 -7 0.0915649 0 -8.42229 -1.08351 0 -9.94113 1.22877 0 -6.89131
 1.22877 0 6.89131 0.0976102 0 8.42229 -0.00648884 0 7 -1.16877 0 8.41527 -1.08351 0 9.94113 -1.24145 0 6.88904
 -5.34536 0 4.51964 -6.7042 0 5.21856 -6.05893 0 3.50562 -7.3397 0 4.13185 -8.06752 0 5.90891 -6.58243 0 2.38151
 6.5868 0 2.36939 7.87151 0 3.19672 6.06542 0 3.49438 7.24814 0 4.29044 9.15102 0 4.03222 5.35366 0 4.5098
 30.8453 2.07795 5 32.3763 1.92838 5 31.1023 3.31138 5 32.6334 3.16181 5 33.9074 1.77882 5 31.3594 4.54481 5
 -26.4572 0.634074 -35.8252 -25.0136 1.24094 -36.291 -24.9945 0.123715 -36.967 -23.7165 0.740755 -37.3529 -23.6873 1.83048 -36.6542 -23.71 -0.399239 -37.9788
 -17.7969 0.634074 40.8252 -18.9221 1.24094 39.8079 -19.5172 0.123715 40.1294 -20.4903 0.740755 39.2155 -19.8998 1.83048 38.8408 -21.0355 -0.399239 39.5229
 -11.611 6.69727 -10.1109 -12.2161 5.68765 -11.159 -11.7491 4.85994 -10.35 -12.3542 3.85033 -11.398 -12.8212 4.67803 -12.207 -11.8871 3.02262 -10.589
 14.5618 6.69727 -5 15.772 5.68765 -5 14.8379 4.85994 -5 16.0481 3.85033 -5 16.9822 4.67803 -5 15.1139 3.02262 -5
 -2.95078 6.69727 15.1109 -3.55588 5.68765 16.159 -3.08881 4.85994 15.35 -3.69391 3.85033 16.398 -4.16099 4.67803 17.207 -3.22684 3.02262 15.589
 -2.98887 6.8182 -15.1769 -2.63198 8.4091 -14.5587 -2.32937 6.9091 -14.0346 -1.97248 8.5 -13.4164 -2.27509 10 -13.9406 -1.66987 7 -12.8923
 14.638 6.8182 5 13.9242 8.4091 5 13.319 6.9091 5 12.6052 8.5 5 13.2104 10 5 12 7 5
 -11.6491 6.8182 10.1769 -11.2922 8.4091 9.55873 -10.9896 6.9091 9.03459 -10.6327 8.5 8.41644 -10.9353 10 8.94057 -10.3301 7 7.8923
 12.756 0 -2.50713 13.6401 0 -3.75356 14.0168 0 -1.99714 14.9009 0 -3.24357 14.5242 0 -5 15.2776 0 -1.48715
 -8.54921 0 -9.79342 -10.0707 0 -9.93585 -8.73797 0 -11.1403 -10.2595 0 -11.2828 -11.5922 0 -10.0783 -8.92672 0 -12.4872
 -8.92672 0 12.4872 -10.2595 0 11.2828 -8.73797 0 11.1403 -10.0707 0 9.93585 -11.5922 0 10.0783 -8.54921 0 9.79342
 44.878 -0.718881 -0.90848 44.8542 -0.659857 0.631442 45.2976 -1.88269 0.38395 45.2779 -1.82176 1.95685 44.8301 -0.60096 2.22021 45.6377 -3.07068 1.69733
 -8.40233 10 14.0782 -7.47438 10 12.7156 -8.95856 10 12.6278 -8.03062 10 11.2652 -6.54644 10 11.3529 -9.5148 10 11.1775
 -7.99094 10 -14.3157 -7.27481 10 -12.8308 -6.45676 10 -14.0723 -5.74063 10 -12.5873 -6.55869 10 -11.3458 -4.92257 10 -13.8288
 16.3933 10 0.237514 14.7492 10 0.115221 15.4153 10 1.44442 13.7713 10 1.32213 13.1051 10 -0.00707111 14.4374 10 2.65133
 -1.66987 7 12.8923 -1.97273 8.5 13.4169 -2.31032 6.84863 14.0016 -2.61318 8.34863 14.5262 -2.27559 10 13.9414 -2.95078 6.69727 15.1109
 -10.3301 7 -7.8923 -10.633 8.5 -8.41687 -10.9706 6.84863 -9.0016 -11.2734 8.34863 -9.52616 -10.9358 10 -8.94143 -11.611 6.69727 -10.1109
 12 7 -5 12.6057 8.5 -5 13.2809 6.84863 -5 13.8866 8.34863 -5 13.2114 10 -5 14.5618 6.69727 -5
 -3.2602 3.12845 -15.6468 -3.76669 1.56423 -16.5241 -3.99853 2.79516 -16.9257 -4.50502 1.23094 -17.8029 -4.27319 0 -17.4014 -4.73686 2.46187 -18.2045
 15.1806 3.12845 5 16.1936 1.56423 5 16.6573 2.79516 5 17.6703 1.23094 5 17.2066 0 5 18.134 2.46187 5
 -11.9205 3.12845 10.6468 -12.4269 1.56423 11.5241 -12.6588 2.79516 11.9257 -13.1653 1.23094 12.8029 -12.9334 0 12.4014 -13.3971 2.46187 13.2045
 -14.379 5.03117 -14.9052 -14.1875 6.20144 -14.5735 -15.0673 6.01656 -16.0973 -14.8757 7.18683 -15.7655 -13.996 7.37171 -14.2418 -15.7555 7.00196 -17.2893
 20.0978 5.03117 -5 19.7148 6.20144 -5 21.4743 6.01656 -5 21.0912 7.18683 -5 19.3317 7.37171 -5 22.8507 7.00196 -5
 -5.71879 5.03117 19.9052 -5.52727 6.20144 19.5735 -6.40701 6.01656 21.0973 -6.21548 7.18683 20.7655 -5.33574 7.37171 19.2418 -7.09523 7.00196 22.2893
 41.9702 4.03415 -2.19451 42.7155 3.1066 -1.78267 42.4062 3.50697 -3.5212 43.1143 2.55284 -3.07117 43.3953 2.13312 -1.3795 42.82 2.96332 -5
 -21.5855 -10 -32.7466 -20.8986 -10 -31.3142 -22.516 -10 -31.8184 -21.8502 -10 -30.399 -20.2204 -10 -29.895 -23.5662 -10 -30.8178
 -25.8024 -7.35893 34.691 -25.3572 -6.07856 33.9199 -25.0052 -7.45075 33.3103 -24.56 -6.17037 32.5392 -24.912 -4.79818 33.1488 -24.208 -7.54257 31.9296
 -24.208 -7.54257 -31.9296 -24.56 -6.17037 -32.5392 -25.0052 -7.45075 -33.3103 -25.3572 -6.07856 -33.9199 -24.912 -4.79818 -33.1488 -25.8024 -7.35893 -34.691
 28.645 6.94977 -5 29.9284 6.05753 -5 28.5603 5.35396 -5 29.8438 4.46172 -5 31.2118 5.1653 -5 28.4757 3.75814 -5
 -17.1421 -7.3578 -39.691 -16.6973 -6.07673 -38.9206 -16.3449 -7.45018 -38.3103 -15.9002 -6.16911 -37.5399 -16.2526 -4.79566 -38.1502 -15.5478 -7.54257 -36.9296
 26 7.54214 5 24.4469 7.21676 5 26 6.22054 5 24.4469 5.92628 5 22.8938 6.89137 5 26 4.96119 5
 -17.3301 7.54214 20.0167 -16.5536 7.21676 18.6716 -17.3301 6.22054 20.0167 -16.5536 5.92628 18.6716 -15.777 6.89137 17.3266 -17.3301 4.96119 20.0167
 -8.66987 7.54214 -25.0167 -7.89332 7.21676 -23.6716 -8.66987 6.22054 -25.0167 -7.89332 5.92628 -23.6716 -7.11676 6.89137 -22.3266 -8.66987 4.96119 -25.0167
 26 5.05142 -5 24.4254 6.02669 -5 26 6.27922 -5 24.4254 7.28538 -5 22.8507 7.00196 -5 26 7.5688 -5
 -17.3301 5.05142 -20.0167 -16.5428 6.02669 -18.653 -17.3301 6.27922 -20.0167 -16.5428 7.28538 -18.653 -15.7555 7.00196 -17.2893 -17.3301 7.5688 -20.0167
 -8.66987 5.05142 25.0167 -7.88255 6.02669 23.653 -8.66987 6.27922 25.0167 -7.88255 7.28538 23.653 -7.09523 7.00196 22.2893 -8.66987 7.5688 25.0167
 41.9715 4.0373 5 42.4059 3.50731 2.8687 41.5139 4.54526 2.8687 42.82 2.96332 5 41.9697 4.03479 1.01379 41.0421 5.04206 5
 -23.5662 -10 30.8178 -21.8381 -10 30.406 -22.5062 -10 31.824 -20.8786 -10 31.3258 -20.1981 -10 29.9078 -21.5677 -10 32.7569
 38.4721 -10 5 37.2514 -10 3.70932 38.8135 -10 3.57895 37.5682 -10 2.41849 36 -10 2.53815 39.1522 -10 2.29975
 15.8654 0 -5 14.9009 0 -3.24357 14.5242 0 -5 14.819 1.51131 -5 16.1603 1.51131 -5 16.2421 0 -3.24357 15.1139 3.02262 -5 15.2776 0 -1.48715 17.2066 0 -5
 -12.2628 0 -11.2398 -10.2595 0 -11.2828 -11.5922 0 -10.0783 -11.7396 1.51131 -10.3337 -12.4103 1.51131 -11.4952 -10.9301 0 -12.4443 -11.8871 3.02262 -10.589 -8.92672 0 -12.4872 -12.9334 0 -12.4014
 -15.5478 -7.54257 36.9296 -15.915 -6.14459 37.5656 -16.3417 -7.4369 38.3047 -16.7089 -6.03892 38.9407 -16.2822 -4.74662 38.2016 -17.1357 -7.33122 39.6799
 16.9605 10 -2.51907 16.6769 10 -1.14078 18.3252 10 -1.97537 18.0415 10 -0.597081 16.3933 10 0.237514 19.6898 10 -1.43168
 -10.6619 10 -13.4287 -9.3264 10 -13.8722 -10.8733 10 -14.8824 -9.53785 10 -15.3259 -7.99094 10 -14.3157 -11.0848 10 -16.336
 -6.2987 10 15.9478 -7.35051 10 15.013 -7.45186 10 16.8577 -8.50367 10 15.923 -8.40233 10 14.0782 -8.60502 10 17.7677
 22.1343 10 5 21.7824 10 3.38341 20.8442 10 5 21.869 8.44569 5 23.1591 8.44569 5 23.0725 10 3.38341 22.8938 6.89137 5 22.7206 10 1.76683 23.4243 10 5
 -15.3973 10 16.6689 -13.8213 10 17.1724 -14.7522 10 15.5516 -15.2646 8.44569 16.4391 -15.9097 8.44569 17.5563 -14.4664 10 18.2897 -15.777 6.89137 17.3266 -12.8904 10 18.7932 -16.0423 10 17.7861
 -6.73702 10 -21.6689 -7.96109 10 -20.5558 -6.09199 10 -20.5516 -6.60438 8.44569 -21.4391 -7.2494 8.44569 -22.5563 -8.60612 10 -21.6731 -7.11676 6.89137 -22.3266 -9.8302 10 -20.5601 -7.38204 10 -22.7861
 35.3929 8.83113 5 34.9924 8.99096 3.17979 34.1106 9.30984 5 34.1216 7.64127 5 35.3833 7.11343 5 36.2483 8.45262 3.17979 34.1326 5.9727 5 35.8544 8.63484 1.57568 36.6341 8.25416 5
 -18.667 6.94064 -22.3323 -19.317 6.04448 -23.458 -18.6175 5.34939 -22.2465 -19.2674 4.45323 -23.3722 -19.9669 5.14832 -24.5837 -18.568 3.75814 -22.1607
 42.9316 -7.33122 5 42.0383 -6.03191 5 41.3437 -7.4369 5 40.4504 -6.13758 5 41.145 -4.73259 5 39.7558 -7.54257 5
 31.454 9.96153 5 30.2983 8.42598 5 31.7486 8.64532 5 30.5929 7.10977 5 29.1426 6.89042 5 32.0431 7.32911 5
 -15.2211 10 -21.2343 -15.6314 10 -19.5097 -14.2661 10 -20.1135 -14.6765 10 -18.3889 -16.0417 10 -17.7851 -13.3112 10 -18.9927
 26 10 -2.56467 24.7116 10 -3.78234 24.5519 10 -2.29808 23.2635 10 -3.51574 23.4232 10 -5 23.1038 10 -2.03148
 -10.7789 10 23.799 -9.08019 10 23.292 -10.2858 10 22.4116 -8.58703 10 21.9046 -7.38146 10 22.7851 -9.79259 10 21.0242
 26 4.96119 5 27.5713 5.92581 5 26 6.22054 5 27.5713 7.21628 5 29.1426 6.89042 5 26 7.54214 5
 -10.0068 6.94064 27.3323 -10.659 6.04407 28.462 -9.95725 5.34939 27.2465 -10.6095 4.45282 28.3762 -11.3112 5.1475 29.5917 -9.90771 3.75814 27.1607
 -15.863 8.81054 -31.7714 -15.5098 9.26193 -30.5675 -14.3642 9.06912 -31.8707 -14.0256 9.47201 -30.6357 -15.1379 9.62521 -29.3406 -12.7252 9.30984 -32.0407
 39.7558 -7.54257 -5 40.4498 -6.13255 -5 41.3437 -7.4369 -5 42.0377 -6.02688 -5 41.1438 -4.72253 -5 42.9316 -7.33122 -5
 28.7371 0.00638008 -5 28.6064 1.88226 -5 29.7531 0.987501 -5 29.6224 2.86338 -5 28.4757 3.75814 -5 30.7692 1.96862 -5
 -23.3113 -5.23719 -30.3763 -23.7597 -6.38988 -31.1529 -22.8223 -6.25006 -29.5294 -23.2707 -7.40275 -30.306 -24.208 -7.54257 -31.9296 -22.3333 -7.26293 -28.6824
 -13.6731 -7.26293 -33.6824 -14.6104 -7.40275 -35.306 -14.162 -6.25006 -34.5294 -15.0994 -6.38988 -36.1529 -15.5478 -7.54257 -36.9296 -14.651 -5.23719 -35.3763
 -22.3333 -7.26293 28.6824 -23.2707 -7.40275 30.306 -22.8223 -6.25006 29.5294 -23.7597 -6.38988 31.1529 -24.208 -7.54257 31.9296 -23.3113 -5.23719 30.3763
 -17.3301 4.96119 20.0167 -18.1216 5.90659 21.3876 -17.3301 6.22054 20.0167 -18.1216 7.19706 21.3876 -18.9131 6.85198 22.7585 -17.3301 7.54214 20.0167
 -8.66987 4.96119 -25.0167 -9.46137 5.90659 -26.3876 -8.66987 6.22054 -25.0167 -9.46137 7.19706 -26.3876 -10.2529 6.85198 -27.7585 -8.66987 7.54214 -25.0167
 -8.42376 10 -9.04749 -6.71188 10 -8.85387 -7.49122 10 -10.1967 -5.77934 10 -10.003 -5 10 -8.66025 -6.55869 10 -11.3458
 12.0472 10 -2.77144 11.0236 10 -1.38572 12.5762 10 -1.38926 11.5526 10 -0.00353555 10 10 0 13.1051 10 -0.00707111
 -3.62348 10 11.8189 -4.31174 10 10.2396 -5.08496 10 11.5859 -5.77322 10 10.0066 -5 10 8.66025 -6.54644 10 11.3529
 -16.1909 5.04206 38.0435 -17.8018 5.51427 36.5393 -17.7076 4.54495 37.7129 -19.1498 5.03903 36.3308 -19.0846 4.03415 37.4445 -19.1635 5.97086 35.1625
 39.2051 1.30436 -5 37.8654 0.156377 -5 37.9564 2.09073 -5 39.1141 -0.629994 -5 37.7744 -1.77798 -5 40.4538 0.517992 -5
 -16.9797 -2.01618 39.4097 -16.5731 -0.669057 38.7055 -17.3883 -0.691052 40.1175 -16.9818 0.656068 39.4133 -16.1666 0.678063 38.0013 -17.7969 0.634074 40.8252
 -6.55869 10 -11.3458 -5.77934 10 -10.003 -5.0908 10 -11.582 -4.31145 10 -10.2392 -5 10 -8.66025 -3.62291 10 -11.8182
 13.1051 10 -0.00707111 11.5526 10 -0.00353555 12.5757 10 1.38225 11.0232 10 1.38578 10 10 0 12.0463 10 2.77157
 -6.54644 10 11.3529 -5.77322 10 10.0066 -7.48492 10 10.1998 -6.7117 10 8.85344 -5 10 8.66025 -8.42341 10 9.04663
 18.134 2.46187 5 19.4053 3.08829 5 17.7918 3.94321 5 19.0631 4.56963 5 20.6765 3.71471 5 17.4496 5.42454 5
 -14.6684 3.71471 15.4064 -13.8617 4.56963 14.0091 -14.0328 3.08829 14.3054 -13.226 3.94321 12.9081 -13.0549 5.42454 12.6118 -13.3971 2.46187 13.2045
 -4.73686 2.46187 -18.2045 -5.3725 3.08829 -19.3054 -4.56576 3.94321 -17.9081 -5.2014 4.56963 -19.0091 -6.00815 3.71471 -20.4064 -4.39466 5.42454 -17.6118
 -19.7404 1.90671 24.1914 -19.1385 2.80372 23.1488 -19.2195 0.956546 23.2892 -18.6176 1.85356 22.2466 -18.5366 3.70073 22.1063 -18.6987 0.00638008 22.387
 -11.0802 1.90671 -29.1914 -10.4782 2.80372 -28.1488 -10.5593 0.956546 -28.2892 -9.95735 1.85356 -27.2466 -9.8763 3.70073 -27.1063 -10.0384 0.00638008 -27.387
 -7.9273 0 -16.7514 -9.50041 0 -15.7523 -9.59507 0 -16.9706 -11.1682 0 -15.9715 -11.0735 0 -14.7532 -11.2628 0 -17.1898
 20.5182 0 -1.15902 19.4945 0 0.175728 19.4158 0 -1.68618 18.3921 0 -0.35143 18.4708 0 1.51048 18.3134 0 -2.21334
 -5.71879 5.03117 19.9052 -6.30974 4.11431 20.9288 -5.35559 3.89234 19.2762 -5.94654 2.97549 20.2997 -6.90069 3.19746 21.9523 -4.9924 2.75351 18.6471
 -14.379 5.03117 -14.9052 -14.97 4.11431 -15.9288 -14.0158 3.89234 -14.2762 -14.6068 2.97549 -15.2997 -15.5609 3.19746 -16.9523 -13.6526 2.75351 -13.6471
 20.0978 5.03117 -5 21.2797 4.11431 -5 19.3714 3.89234 -5 20.5533 2.97549 -5 22.4616 3.19746 -5 18.645 2.75351 -5
 -24.8512 5.04206 33.0435 -23.2679 4.51144 34.5385 -23.3368 5.4723 33.3957 -21.9426 4.96247 34.8063 -21.9501 5.88985 33.6618 -21.9127 3.96429 35.8807
 41.0396 -10 -5 41.9207 -10 -3.65658 40.0952 -10 -3.65406 40.9764 -10 -2.43926 39.1522 -10 -2.43695 42.8006 -10 -2.44157
 -16.1897 -10 38.0413 -17.7937 -10 38.1327 -16.8831 -10 36.5505 -18.3758 -10 36.7063 -17.4656 -10 35.1252 -19.2858 -10 38.2872
 13 0 0 14.1388 0 -0.743575 14.1175 0 1.10554 15.2563 0 0.361964 15.2776 0 -1.48715 15.2349 0 2.21108
 -8.92672 0 -12.4872 -7.31466 0 -13.3933 -7.71336 0 -11.8728 -6.1013 0 -12.7788 -5.7026 0 -14.2993 -6.5 0 -11.2583
 28.4129 3.70073 5 29.8861 4.12277 5 28.7777 5.29558 5 30.251 5.71762 5 31.3594 4.54481 5 29.1426 6.89042 5
 28.9098 10.2113 -2.062 28.8198 10.2128 -3.44833 27.5383 10.174 -2.31135 27.44 10.1667 -3.72378 28.7285 10.1935 -5 26 10 -2.56467
 -12.6692 10.2113 26.0676 -11.4236 10.2128 26.6828 -11.7674 10.174 25.0045 -10.4951 10.1667 25.6256 -10.0341 10.1935 27.3796 -10.7789 10 23.799
 34.1326 5.9727 5 35.4058 5.41248 5 35.3833 7.11343 5 36.6565 6.55321 5 36.6789 4.85227 5 36.6341 8.25416 5
 30.0958 10.1306 -5 28.6868 8.57161 -5 28.7285 10.1935 -5 28.8198 10.2128 -3.44833 30.1723 10.1317 -3.44833 30.0495 8.45565 -5 28.9098 10.2113 -2.062 28.645 6.94977 -5 31.454 9.96153 -5
 -10.7178 10.1306 28.5637 -10.0205 8.56704 27.3559 -10.0341 10.1935 27.3796 -11.4236 10.2128 26.6828 -12.0998 10.1317 27.8541 -10.7018 8.45108 28.5361 -12.6692 10.2113 26.0676 -10.0068 6.94064 27.3323 -11.3969 9.96153 29.74
 -13.4584 10 -13.3107 -12.0601 10 -13.3697 -12.2716 10 -14.8233 -10.8733 10 -14.8824 -10.6619 10 -13.4287 -11.0848 10 -16.336
 18.2566 10 -5 17.6086 10 -3.75953 18.9732 10 -3.21584 18.3252 10 -1.97537 16.9605 10 -2.51907 19.6898 10 -1.43168
 -4.79816 10 18.3107 -5.54843 10 17.1292 -6.70159 10 18.0392 -7.45186 10 16.8577 -6.2987 10 15.9478 -8.60502 10 17.7677
 -21.9127 3.96429 35.8807 -20.5573 5.00646 35.5557 -21.9426 4.96247 34.8063 -20.5372 5.93044 34.4236 -19.1635 5.97086 35.1625 -21.9501 5.88985 33.6618
 -23.4363 -10 -35.8715 -21.9357 -10 -35.7 -22.5109 -10 -34.3092 -21.0106 -10 -34.1357 -20.4776 -10 -35.5019 -21.5855 -10 -32.7466
 30.8453 2.07795 5 29.6291 2.88934 5 29.7912 1.04216 5 28.575 1.85356 5 28.4129 3.70073 5 28.7371 0.00638008 5
 -16.8929 -10 -36.5448 -18.3951 -10 -36.6951 -17.8051 -10 -38.1262 -17.4836 -10 -35.1149 -19.3066 -10 -38.2752 -16.1897 -10 -38.0413
 46 -9.99999 -2.56467 46.1667 -8.56003 -3.72378 46.1738 -8.46467 -2.29917 46.2128 -7.1829 -3.43512 46.1935 -7.27148 -5 46.2114 -7.09556 -2.03802
 -18.6987 0.00638008 -22.387 -18.6333 1.88226 -22.2738 -19.2225 0.984859 -23.2943 -19.1571 2.86074 -23.1811 -18.568 3.75814 -22.1607 -19.7463 1.96334 -24.2016
 -10.0384 0.00638008 27.387 -9.97306 1.88226 27.2738 -10.5622 0.984859 28.2943 -10.4969 2.86074 28.1811 -9.90771 3.75814 27.1607 -11.0861 1.96334 29.2016
 36.0064 -7.26293 5 37.8811 -7.40275 5 36.9817 -6.21878 5 38.8564 -6.35859 5 39.7558 -7.54257 5 37.957 -5.17462 5
 37.957 -5.17389 -5 38.8564 -6.35823 -5 36.9817 -6.21841 -5 37.8811 -7.40275 -5 39.7558 -7.54257 -5 36.0064 -7.26293 -5
 -21.0424 -1.08681 -39.8368 -22.3807 -0.740934 -38.9094 -20.9252 0.18084 -39.2854 -22.2442 0.510913 -38.3383 -23.71 -0.399239 -37.9788 -20.7581 1.38933 -38.65
 -19.378 10.1306 -23.5637 -18.6807 8.56704 -22.3559 -18.6944 10.1935 -22.3796 -17.401 10.2118 -23.3039 -18.0766 10.1252 -24.4742 -19.3621 8.45108 -23.5361 -16.2547 10.2083 -24.1411 -18.667 6.94064 -22.3323 -20.0571 9.96153 -24.74
 -23.9785 -1.08681 38.1416 -22.5062 -0.740934 38.8369 -23.5629 0.180962 37.7624 -22.0831 0.511033 38.4313 -21.0355 -0.399239 39.5229 -23.0996 1.38956 37.298
 -12.2628 0 11.2398 -10.9301 0 12.4443 -12.9334 0 12.4014 -12.4269 1.56423 11.5241 -11.7563 1.56423 10.3626 -10.2595 0 11.2828 -11.9205 3.12845 10.6468 -8.92672 0 12.4872 -11.5922 0 10.0783
 -11.0735 0 -14.7532 -12.7227 0 -14.823 -11.1682 0 -15.9715 -12.8174 0 -16.0413 -14.3719 0 -14.8928 -11.2628 0 -17.1898
 20.5182 0 -1.15902 19.4158 0 -1.68618 20.3008 0 -3.07951 19.1984 0 -3.60667 18.3134 0 -2.21334 20.0835 0 -5
 39.1522 -10 2.29975 40.0677 -10 1.09591 40.9681 -10 2.31428 41.8849 -10 1.10959 40.9843 -10 -0.0605847 42.7838 -10 2.32883
 -21.5677 -10 32.7569 -20.9829 -10 34.1517 -22.4883 -10 34.3223 -21.9034 -10 35.7186 -20.4397 -10 35.5237 -23.4087 -10 35.8874
 -9.46806 0 18.2371 -10.3236 0 16.8174 -8.57425 0 17.2176 -9.42982 0 15.7979 -11.1792 0 15.3977 -7.68044 0 16.1981
 46.1305 -5.9042 -5 44.4466 -5.93859 -5 45.9615 -4.54596 -5 46.132 -5.83037 -3.43512 46.2128 -7.1829 -3.43512 44.5625 -7.30135 -5 46.2114 -7.09556 -2.03802 42.9316 -7.33122 -5 46.1935 -7.27148 -5
 -18.3248 -1.88936 41.7395 -20.2456 -2.74445 40.9106 -18.5136 -3.20498 42.0665 -17.6523 -1.95277 40.5746 -17.8152 -3.28107 40.8568 -20.4013 -4.07464 41.1803 -18.6506 -4.54596 42.3038 -21.9202 -3.59903 40.1874 -16.9797 -2.01618 39.4097
 -16.1288 0.706837 -37.9359 -16.5414 -0.645296 -38.6505 -16.9629 0.670455 -39.3805 -17.3755 -0.681678 -40.0952 -16.954 -1.99743 -39.3652 -17.797 0.634074 -40.8252
 37.2909 3.4756 -5 35.2662 3.33218 -5 36.6254 4.86047 -5 35.9317 1.94731 -5 33.907 1.8039 -5 37.9564 2.09073 -5
 -14.7088 -5.15473 35.4765 -15.1283 -6.34865 36.203 -14.191 -6.20883 34.5795 -14.6104 -7.40275 35.306 -15.5478 -7.54257 36.9296 -13.6731 -7.26293 33.6824
 42.8006 -10 -2.44157 41.8933 -10 -1.22445 40.9764 -10 -2.43926 40.0677 -10 -1.22228 40.9843 -10 -0.0605847 39.1522 -10 -2.43695
 -19.2858 -10 38.2872 -19.8862 -10 36.8929 -18.3758 -10 36.7063 -18.9753 -10 35.3108 -20.4397 -10 35.5237 -17.4656 -10 35.1252
 26 4.96119 5 24.4469 5.92628 5 24.7936 4.33096 5 23.2405 5.29605 5 22.8938 6.89137 5 23.5871 3.70073 5
 -17.3301 4.96119 20.0167 -16.5536 5.92628 18.6716 -16.7269 4.33096 18.9719 -15.9504 5.29605 17.6268 -15.777 6.89137 17.3266 -16.1237 3.70073 17.9271
 -8.66987 4.96119 -25.0167 -7.89332 5.92628 -23.6716 -8.06666 4.33096 -23.9719 -7.2901 5.29605 -22.6268 -7.11676 6.89137 -22.3266 -7.46345 3.70073 -22.9271
 -18.5366 3.70073 22.1063 -18.7248 5.27636 22.4324 -17.9333 4.33096 21.0615 -18.1216 5.90659 21.3876 -18.9131 6.85198 22.7585 -17.3301 4.96119 20.0167
 -9.8763 3.70073 -27.1063 -10.0646 5.27636 -27.4324 -9.27309 4.33096 -26.0615 -9.46137 5.90659 -26.3876 -10.2529 6.85198 -27.7585 -8.66987 4.96119 -25.0167
 -24.8512 5.04206 -33.0435 -22.9021 5.51054 -33.5993 -23.8061 4.54533 -34.1916 -22.0352 5.03503 -34.6696 -22.885 4.0344 -35.2502 -21.1579 5.96327 -34.0213
 36.6254 4.86047 -5 35.3079 5.70983 -5 36.6297 6.55731 -5 35.3123 7.40668 -5 33.9905 6.5592 -5 36.6341 8.25416 -5
 -24.76 0.625081 32.8857 -25.1845 -0.692438 33.6208 -25.6086 0.629577 34.3554 -26.0331 -0.687941 35.0906 -25.6089 -2.00996 34.3559 -26.4572 0.634074 35.8252
 -25.6089 -2.00996 -34.3559 -25.1845 -0.692438 -33.6208 -26.0331 -0.687941 -35.0906 -25.6086 0.629577 -34.3554 -24.76 0.625081 -32.8857 -26.4572 0.634074 -35.8252
 -19.0526 -10 30.5692 -18.7594 -8.23492 30.8671 -17.9608 -10 31.1995 -19.74 -10 31.9832 -20.8786 -10 31.3258 -19.8818 -8.23492 30.2191 -21.5677 -10 32.7569 -19.3956 -6.5855 30.2146 -20.1981 -10 29.9078
 36 -10 1.21538 36.1126 -8.258 0.760098 36 -10 -0.0452634 37.5682 -10 1.10372 37.5682 -10 2.41849 36.1126 -8.258 2.05321 39.1522 -10 2.29975 35.8759 -6.63412 1.58154 36 -10 2.53815
 -17.4836 -10 -35.1149 -19.0031 -10 -35.2948 -18.3951 -10 -36.6951 -19.9154 -10 -36.876 -20.4776 -10 -35.5019 -19.3066 -10 -38.2752
 -14.651 -5.23719 -35.3763 -14.6106 -3.66584 -35.3063 -13.9515 -4.94792 -34.1647 -13.9111 -3.37657 -34.0947 -14.5702 -2.09449 -35.2363 -13.252 -4.65864 -32.9531
 -23.3113 -5.23719 30.3763 -23.2708 -3.66584 30.3063 -22.6117 -4.94792 29.1647 -22.5713 -3.37657 29.0947 -23.2304 -2.09449 30.2363 -21.9122 -4.65864 27.9531
 28.4129 3.70073 5 28.7777 5.29558 5 27.2064 4.33096 5 27.5713 5.92581 5 29.1426 6.89042 5 26 4.96119 5
 -23.6873 1.83048 -36.6542 -22.2064 1.61096 -37.6634 -23.7165 0.740755 -37.3529 -22.2442 0.510913 -38.3383 -20.7581 1.38933 -38.65 -23.71 -0.399239 -37.9788
 -23.2304 -2.09449 -30.2363 -23.2708 -3.66584 -30.3063 -22.5713 -3.37657 -29.0947 -22.6117 -4.94792 -29.1647 -23.3113 -5.23719 -30.3763 -21.9122 -4.65864 -27.9531
 -5.66914 10 -16.0009 -6.6292 10 -17.0974 -6.83004 10 -15.1583 -7.7901 10 -16.2548 -7.58926 10 -18.1939 -7.99094 10 -14.3157
 16.6918 10 3.09084 18.1214 10 2.80766 16.5425 10 1.66418 17.9721 10 1.381 19.551 10 2.52448 16.3933 10 0.237514
 -11.0226 10 12.9101 -11.4922 10 14.2898 -9.71247 10 13.4941 -10.1821 10 14.8738 -11.9618 10 15.6695 -8.40233 10 14.0782
 30.7692 1.96862 -5 32.3381 1.88626 -5 31.0552 0.566422 -5 32.6242 0.484059 -5 33.907 1.8039 -5 31.3413 -0.835778 -5
 15.1139 3.02262 -5 14.819 1.51131 -5 13.557 2.66268 -5 13.2621 1.15137 -5 14.5242 0 -5 12 2.30274 -5
 -3.22684 3.02262 15.589 -3.07939 1.51131 15.3337 -2.44835 2.66268 14.2407 -2.30091 1.15137 13.9853 -2.93195 0 15.0783 -1.66987 2.30274 12.8923
 -11.8871 3.02262 -10.589 -11.7396 1.51131 -10.3337 -11.1086 2.66268 -9.24067 -10.9612 1.15137 -8.9853 -11.5922 0 -10.0783 -10.3301 2.30274 -7.8923
 33.9074 1.77882 5 32.3763 1.92838 5 32.6244 0.471519 5 31.0933 0.621085 5 30.8453 2.07795 5 31.3413 -0.835778 5
 -9.88442 0 -20.2443 -10.5736 0 -18.717 -11.5721 0 -19.6949 -12.2613 0 -18.1676 -11.2628 0 -17.1898 -13.2598 0 -19.1455
 22.4742 0 1.56197 21.4962 0 0.201475 22.8423 0 -0.174292 21.8643 0 -1.53479 20.5182 0 -1.15902 23.2104 0 -1.91055
 -19.8998 1.83048 38.8408 -21.5175 1.61108 38.061 -20.4903 0.740755 39.2155 -22.0831 0.511033 38.4313 -23.0996 1.38956 37.298 -21.0355 -0.399239 39.5229
 -12.9611 10 22.5391 -12.9258 10 20.6662 -14.0531 10 21.9087 -14.0447 10 20.0202 -12.8904 10 18.7932 -15.199 10 21.2471
 26 10 -0.0449491 24.3603 10 0.860938 26 10 1.21601 24.3603 10 2.15299 22.7206 10 1.76683 26 10 2.53915
 -13.0389 10 -22.4942 -11.4346 10 -21.5271 -11.9469 10 -23.1247 -10.3156 10 -22.1731 -9.8302 10 -20.5601 -10.801 10 -23.7862
 -17.4831 7.77311 33.2336 -18.9993 7.53956 32.8017 -18.3437 6.92825 34.231 -19.8427 6.66124 33.7832 -20.5158 7.29608 32.3622 -19.1635 5.97086 35.1625
 -21.1579 5.96327 -34.0213 -20.6663 5.00681 -35.4924 -22.0352 5.03503 -34.6696 -21.4934 4.00418 -36.0835 -20.142 3.9739 -36.8936 -22.885 4.0344 -35.2502
 -19.1635 5.97086 35.1625 -20.5573 5.00646 35.5557 -19.1498 5.03903 36.3308 -20.5186 3.99925 36.6512 -21.9127 3.96429 35.8807 -19.0846 4.03415 37.4445
 32.795 9.6874 -5 33.0193 9.61478 -3.31126 34.1106 9.30984 -5 34.0506 7.93452 -5 32.7223 8.26036 -5 31.6913 9.90897 -3.31126 33.9905 6.5592 -5 31.9305 9.86285 -1.81346 31.454 9.96153 -5
 -9.8763 3.70073 -27.1063 -10.6541 4.15633 -28.4534 -10.0646 5.27636 -27.4324 -10.8423 5.73195 -28.7795 -11.4318 4.61192 -29.8005 -10.2529 6.85198 -27.7585
 -26.985 -1.88936 -36.7395 -25.3068 -2.74445 -37.9885 -27.1738 -3.20498 -37.0665 -26.297 -1.94966 -35.5477 -26.4599 -3.27796 -35.8299 -25.4625 -4.07464 -38.2582 -27.3109 -4.54596 -37.3038 -23.8432 -3.59903 -39.0772 -25.6089 -2.00996 -34.3559
 -24.8499 -10 -33.0413 -24.0846 -10 -34.4911 -23.1568 -10 -32.9284 -22.5109 -10 -34.3092 -21.5855 -10 -32.7466 -23.4363 -10 -35.8715
 -4.73686 2.46187 -18.2045 -5.22423 1.23094 -19.0486 -5.3725 3.08829 -19.3054 -5.85988 1.85736 -20.1496 -5.71161 0 -19.8928 -6.00815 3.71471 -20.4064
 -14.3719 0 14.8928 -14.5201 1.85736 15.1496 -13.8845 1.23094 14.0486 -14.0328 3.08829 14.3054 -14.6684 3.71471 15.4064 -13.3971 2.46187 13.2045
 18.134 2.46187 5 19.1087 1.23094 5 19.4053 3.08829 5 20.38 1.85736 5 20.0835 0 5 20.6765 3.71471 5
 -16.9474 -10 -31.7846 -17.3847 -8.2556 -31.662 -18.0392 -10 -31.1543 -17.7809 -10 -33.1143 -16.6389 -10 -33.7736 -16.2641 -8.2556 -32.309 -17.4836 -10 -35.1149 -16.5404 -6.62905 -31.8749 -15.8019 -10 -32.446
 -27.3954 -5.9042 -37.4502 -26.5566 -5.95245 -35.9974 -27.3109 -4.54596 -37.3038 -25.9927 -5.79031 -38.2568 -26.035 -7.14205 -38.33 -26.6146 -7.3152 -36.0979 -24.7863 -7.01421 -39.0479 -25.8024 -7.35893 -34.691 -27.4269 -7.27148 -37.5047
 -18.7351 -5.9042 42.4502 -17.8932 -5.93859 40.9919 -18.6506 -4.54596 42.3038 -20.135 -5.79031 41.6388 -20.1772 -7.14205 41.712 -17.9511 -7.30135 41.0923 -21.4234 -7.01421 40.9895 -17.1357 -7.33122 39.6799 -18.7666 -7.27148 42.5047
 -16.1909 5.04206 -38.0435 -18.2911 4.51608 -37.4069 -17.223 5.51417 -36.8736 -19.156 5.0106 -36.3601 -18.1166 5.97023 -35.7678 -20.142 3.9739 -36.8936
 43.8013 1.47475 1.67881 43.602 1.80634 0.144242 42.9439 2.79496 1.34401 42.7152 3.10694 -0.178715 43.3953 2.13312 -1.3795 41.9697 4.03479 1.01379
 26 7.5688 -5 27.3643 8.88113 -5 27.3225 7.25929 -5 28.6868 8.57161 -5 28.7285 10.1935 -5 28.645 6.94977 -5
 -8.40233 10 14.0782 -6.66228 10 13.954 -7.47438 10 12.7156 -5.73434 10 12.5913 -4.92223 10 13.8297 -6.54644 10 11.3529
 16.3933 10 0.237514 15.4156 10 -1.20728 14.7492 10 0.115221 13.7716 10 -1.32957 14.438 10 -2.65207 13.1051 10 -0.00707111
 -7.99094 10 -14.3157 -8.75334 10 -12.7467 -7.27481 10 -12.8308 -8.03722 10 -11.2617 -9.51574 10 -11.1776 -6.55869 10 -11.3458
 -10.7796 0 23.7986 -10.495 0.12133 25.6246 -11.8282 0.119925 24.9675 -11.4983 -0.0156654 26.6591 -10.0384 0.00638008 27.387 -12.8031 -0.0339412 26.0215
 35.9661 -7.06312 -1.92297 35.9843 -7.16342 -3.37171 36.1199 -8.46337 -2.24025 36.1213 -8.56096 -3.72334 36.0064 -7.26293 -5 36 -10 -2.56387
 -26.1076 -10 35.2197 -26.7672 -8.63574 36.3622 -25.955 -8.67946 34.9554 -26.6146 -7.3152 36.0979 -27.4268 -7.27148 37.5047 -25.8024 -7.35893 34.691
 -25.8024 -7.35893 -34.691 -26.6146 -7.3152 -36.0979 -25.955 -8.67946 -34.9554 -26.7672 -8.63574 -36.3622 -27.4269 -7.27148 -37.5047 -26.1076 -10 -35.2197
 -17.4474 -10 -40.2197 -18.107 -8.63574 -41.3622 -17.2947 -8.6789 -39.9553 -17.9543 -7.31464 -41.0978 -18.7666 -7.27148 -42.5047 -17.1421 -7.3578 -39.691
 -16.2547 10.2083 -24.1411 -17.401 10.2118 -23.3039 -15.7802 10.1787 -22.7659 -16.9449 10.1667 -21.9018 -18.6944 10.1935 -22.3796 -15.2211 10 -21.2343
 -23.1471 -10 32.934 -22.4883 -10 34.3223 -24.0695 -10 34.4998 -21.5677 -10 32.7569 -23.4087 -10 35.8874 -24.8499 -10 33.0413
 40.0952 -10 3.57895 40.9681 -10 2.31428 41.9124 -10 3.59489 39.1522 -10 2.29975 42.7838 -10 2.32883 41.0396 -10 5
 -17.3301 7.5688 -20.0167 -18.0123 8.88113 -21.1981 -17.9986 7.25472 -21.1745 -18.6807 8.56704 -22.3559 -18.6944 10.1935 -22.3796 -18.667 6.94064 -22.3323
 -8.66987 7.5688 25.0167 -9.352 8.88113 26.1981 -9.33833 7.25472 26.1745 -10.0205 8.56704 27.3559 -10.0341 10.1935 27.3796 -10.0068 6.94064 27.3323
 -25.2211 -9.99999 -38.5548 -26.3082 -8.56003 -38.1196 -25.0371 -8.42037 -38.8653 -26.035 -7.14205 -38.33 -27.4269 -7.27148 -37.5047 -24.7863 -7.01421 -39.0479
 -20.7789 -9.99999 41.1195 -19.8585 -8.56003 41.8434 -21.1398 -8.42037 41.1155 -20.1772 -7.14205 41.712 -18.7666 -7.27148 42.5047 -21.4234 -7.01421 40.9895
 -12.8904 10 18.7932 -12.4261 10 17.2313 -13.8213 10 17.1724 -13.357 10 15.6105 -11.9618 10 15.6695 -14.7522 10 15.5516
 22.7206 10 1.76683 21.1358 10 2.14565 21.7824 10 3.38341 20.1976 10 3.76224 19.551 10 2.52448 20.8442 10 5
 -9.8302 10 -20.5601 -8.70973 10 -19.377 -7.96109 10 -20.5558 -6.84062 10 -19.3728 -7.58926 10 -18.1939 -6.09199 10 -20.5516
 35.8544 8.63484 1.57568 35.4047 8.82776 0.0387027 34.4393 9.19073 1.46541 33.9702 9.3443 -0.0676245 34.9475 9.00797 -1.49535 32.9781 9.62534 1.35567
 22.8507 7.00196 -5 23.1369 8.50098 -5 24.4254 7.28538 -5 24.7116 8.7844 -5 23.4232 10 -5 26 7.5688 -5
 -15.7555 7.00196 -17.2893 -15.8986 8.50098 -17.5372 -16.5428 7.28538 -18.653 -16.6859 8.7844 -18.9009 -16.0417 10 -17.7851 -17.3301 7.5688 -20.0167
 -7.09523 7.00196 22.2893 -7.23834 8.50098 22.5372 -7.88255 7.28538 23.653 -8.02567 8.7844 23.9009 -7.38146 10 22.7851 -8.66987 7.5688 25.0167
 -13.2598 0 -19.1455 -14.5542 0 -18.298 -14.2401 0 -20.1901 -15.5345 0 -19.3426 -15.8485 0 -17.4505 -15.2204 0 -21.2347
 -9.95061 0 21.0561 -8.56945 0 21.7533 -10.3651 0 22.4273 -8.98396 0 23.1245 -7.1883 0 22.4505 -10.7796 0 23.7986
 23.2104 0 -1.91055 23.1236 0 -3.45528 24.6052 0 -2.23721 24.5184 0 -3.78193 23.0368 0 -5 26 0 -2.56387
 43.555 -10 5 44.8742 -8.63574 5 43.2433 -8.66561 5 44.5625 -7.30135 5 46.1935 -7.27148 5 42.9316 -7.33122 5
 42.9316 -7.33122 -5 44.5625 -7.30135 -5 43.2433 -8.66561 -5 44.8742 -8.63574 -5 46.1935 -7.27148 -5 43.555 -10 -5
 -17.1357 -7.33122 39.6799 -17.9511 -7.30135 41.0923 -17.2915 -8.66561 39.9498 -18.107 -8.63574 41.3622 -18.7666 -7.27148 42.5047 -17.4474 -10 40.2197
 -4.43469e-10 10.0815 -4 -1.0529 9.06525 -3.85894 1.0529 9.06525 -3.85894 -4.43469e-10 8.049 -4 -2 8.049 -3.4641 2 8.049 -3.4641
 -3.4641 10.0815 -2 -3.86839 9.06525 -1.01763 -2.81549 9.06525 -2.84131 -3.4641 8.049 -2 -4 8.049 -1.37574e-15 -2 8.049 -3.4641
 3.4641 10.0815 -2 2.81549 9.06525 -2.84131 3.86839 9.06525 -1.01763 3.4641 8.049 -2 2 8.049 -3.4641 4 8.049 0
 -3.4641 10.0815 2 -2.81549 9.06525 2.84131 -3.86839 9.06525 1.01763 -3.4641 8.049 2 -2 8.049 3.4641 -4 8.049 -1.37574e-15
 3.4641 10.0815 2 3.86839 9.06525 1.01763 2.81549 9.06525 2.84131 3.4641 8.049 2 4 8.049 0 2 8.049 3.4641
 -4.43472e-10 10.0815 4 1.0529 9.06525 3.85894 -1.0529 9.06525 3.85894 -4.43472e-10 8.049 4 2 8.049 3.4641 -2 8.049 3.4641
 -24.0531 -9.99999 39.2292 -24.8519 -8.11564 38.9933 -25.199 -9.99999 38.5676 -24.3081 -10 37.2356 -23.1683 -10 37.8936 -23.7331 -8.11564 39.6392 -23.4087 -10 35.8874 -24.4148 -6.45261 39.2335 -22.9611 -9.99999 39.8596
 46 -9.99999 1.21601 46.1929 -8.15892 1.97753 46 -9.99999 2.53915 44.401 -10 2.43363 44.401 -10 1.11756 46.1929 -8.15892 0.688067 42.7838 -10 2.32883 46.1895 -6.53273 1.43316 46 -9.99999 -0.0449491
 -17.9134 7.58476 -33.3449 -19.3423 7.58591 -32.5178 -18.3537 8.24796 -31.736 -19.7969 8.24897 -30.9006 -20.809 7.58707 -31.6688 -18.7662 8.81736 -30.0763
 -19.6108 -7.05644 -30.2063 -20.8914 -7.1601 -29.4888 -19.9812 -8.46014 -30.1715 -21.2852 -8.56096 -29.4203 -22.3333 -7.26293 -28.6824 -20.2204 -10 -29.895
 -15.863 8.81054 -31.7714 -17.3319 8.81395 -30.9138 -15.5098 9.26193 -30.5675 -16.9637 9.26473 -29.7182 -18.7662 8.81736 -30.0763 -15.1379 9.62521 -29.3406
 -11.3969 9.96153 -29.74 -10.8249 8.40676 -28.7492 -11.573 8.52725 -30.0451 -11.001 6.97248 -29.0543 -10.2529 6.85198 -27.7585 -11.7492 7.09297 -30.3502
 -20.0571 9.96153 24.74 -19.4851 8.40676 23.7492 -20.2333 8.52725 25.0451 -19.6613 6.97248 24.0543 -18.9131 6.85198 22.7585 -20.4094 7.09297 25.3502
 -18.7662 8.81736 -30.0763 -17.3319 8.81395 -30.9138 -18.3537 8.24796 -31.736 -16.9077 8.24393 -32.58 -15.863 8.81054 -31.7714 -17.9134 7.58476 -33.3449
 37.8339 7.58494 -0.986121 38.7811 6.95387 0.263101 39.118 6.70693 -1.30101 40.0076 5.99301 -0.0453119 39.6864 6.2616 1.52572 40.3227 5.71687 -1.61994
 -21.9469 -9.99999 -40.4452 -21.3432 -8.11564 -41.019 -20.801 -9.99999 -41.1067 -20.0583 -10 -39.6985 -21.2006 -10 -39.039 -22.4621 -8.11564 -40.3731 -19.3066 -10 -38.2752 -21.7698 -6.45261 -40.7606 -23.0389 -9.99999 -39.8147
 -12.9608 0 22.5393 -14.5293 0.112582 23.6452 -14.0526 0 21.909 -15.6491 0.112582 22.9987 -16.0526 -0.124079 24.6408 -15.1981 0 21.2476
 -24.8438 -3.52997 38.4815 -23.3602 -3.56451 39.3471 -24.4302 -2.3001 38.3493 -22.9639 -2.33455 39.2076 -21.9202 -3.59903 40.1874 -23.9785 -1.08681 38.1416
 -20.904 -3.52997 -40.7561 -22.3955 -3.56451 -39.9041 -20.9964 -2.3001 -40.3318 -22.4728 -2.33455 -39.4911 -23.8432 -3.59903 -39.0772 -21.0424 -1.08681 -39.8368
 -12.0674 9.6874 30.9013 -12.0427 8.22279 30.8585 -11.3969 9.96153 29.74 -12.978 9.90897 29.1011 -13.642 9.61478 30.2512 -12.7068 7.89694 32.0088 -14.3948 9.86285 28.5594 -12.6884 6.48405 31.977 -12.7252 9.30984 32.0407
 34.9475 9.00797 -1.49535 35.4047 8.82776 0.0387027 36.4318 8.36343 -1.23949 36.8642 8.14195 0.287185 35.8544 8.63484 1.57568 37.8339 7.58494 -0.986121
 22.8938 6.89137 5 24.4469 7.21676 5 23.1591 8.44569 5 24.7122 8.77107 5 26 7.54214 5 23.4243 10 5
 -15.777 6.89137 17.3266 -16.5536 7.21676 18.6716 -15.9097 8.44569 17.5563 -16.6862 8.77107 18.9014 -17.3301 7.54214 20.0167 -16.0423 10 17.7861
 -7.11676 6.89137 -22.3266 -7.89332 7.21676 -23.6716 -7.2494 8.44569 -22.5563 -8.02596 8.77107 -23.9014 -8.66987 7.54214 -25.0167 -7.38204 10 -22.7861
 45.6874 -3.20498 5 44.2221 -3.25512 5 45.9615 -4.54596 5 45.8098 -3.81179 3.24708 45.479 -2.48047 3.24708 43.8963 -1.92682 5 45.6377 -3.07068 1.69733 42.4827 -1.96428 5 45.3098 -1.88936 5
 -20.7276 9.6874 -25.9013 -19.2819 9.61408 -26.9982 -21.3854 9.30984 -27.0407 -21.3672 7.89686 -27.009 -20.703 8.2227 -25.8587 -18.6179 9.90846 -25.848 -21.3489 6.48388 -26.9774 -17.3635 9.86177 -26.8517 -20.0571 9.96153 -24.74
 45.3098 -1.88936 -5 45.6191 -2.99736 -3.23308 45.6874 -3.20498 -5 43.8964 -1.92666 -5 44.2222 -3.25496 -5 45.912 -4.32521 -3.23308 45.9615 -4.54596 -5 45.8694 -4.1026 -1.672 42.4829 -1.96396 -5
 -1.66987 2.30445 -12.8923 -2.30091 1.15222 -13.9853 -2.46503 2.71645 -14.2696 -3.09607 1.56423 -15.3626 -2.93195 0 -15.0783 -3.2602 3.12845 -15.6468
 12 2.30445 5 13.2621 1.15222 5 13.5903 2.71645 5 14.8524 1.56423 5 14.5242 0 5 15.1806 3.12845 5
 -10.3301 2.30445 7.8923 -10.9612 1.15222 8.9853 -11.1253 2.71645 9.26957 -11.7563 1.56423 10.3626 -11.5922 0 10.0783 -11.9205 3.12845 10.6468
 30.0958 10.1306 5 29.1169 10.2058 3.0221 28.7285 10.1935 5 28.9355 8.54194 5 30.2983 8.42598 5 30.4659 10.0984 3.0221 29.1426 6.89042 5 29.4997 10.1876 1.29089 31.454 9.96153 5
 -20.809 7.58707 -31.6688 -19.3423 7.58591 -32.5178 -20.9945 6.81914 -32.874 -19.5493 6.81784 -33.7104 -17.9134 7.58476 -33.3449 -21.1579 5.96327 -34.0213
 -12.7673 5.91251 -32.1135 -13.3481 5.18315 -33.1195 -13.3771 7.08333 -33.1698 -13.9579 6.35397 -34.1758 -13.9289 4.45378 -34.1255 -13.9869 8.25416 -34.226
 -27.3109 -4.54596 37.3038 -25.7782 -5.51017 38.3434 -26.016 -4.0403 37.9308 -24.6569 -5.01627 38.9128 -24.4148 -6.45261 39.2335 -24.8438 -3.52997 38.4815
 -18.6506 -4.54596 -42.3038 -20.3172 -5.51017 -41.4963 -19.841 -4.0403 -41.4959 -21.3711 -5.01627 -40.8099 -21.7698 -6.45261 -40.7606 -20.904 -3.52997 -40.7561
 26 0 -0.0452634 27.7651 0.111388 0.812525 26 0 1.21538 27.7651 0.111388 2.10865 29.4145 -0.13554 1.68979 26 0 2.53815
 43.5824 1.82662 -5 43.8467 1.39671 -3.07117 44.2542 0.634074 -5 42.354 0.576033 -5 41.6369 1.74066 -5 43.1143 2.55284 -3.07117 40.4538 0.517992 -5 43.3953 2.13312 -1.3795 42.82 2.96332 -5
 -14.5832 7.58243 35.2588 -16.4218 7.31516 34.6926 -15.1515 6.82 36.2432 -14.5402 5.63689 35.1844 -13.9579 6.35397 34.1758 -15.8358 8.02336 33.6776 -13.9289 4.45378 34.1255 -17.4831 7.77311 33.2336 -13.9869 8.25416 34.226
 -14.5832 7.58243 -35.2588 -16.0674 7.93462 -33.7278 -13.9869 8.25416 -34.226 -13.9579 6.35397 -34.1758 -14.5402 5.63689 -35.1844 -16.6494 7.21409 -34.7358 -13.9289 4.45378 -34.1255 -17.9134 7.58476 -33.3449 -15.1515 6.82 -36.2432
 43.5824 1.82662 5 43.3304 2.23236 3.23684 42.82 2.96332 5 41.6369 1.74066 5 42.354 0.576033 5 44.0368 1.0592 3.23684 40.4538 0.517992 5 43.8013 1.47475 1.67881 44.2542 0.634074 5
 -23.2434 7.58243 30.2588 -21.4962 7.80116 30.8615 -22.6472 8.25416 29.226 -22.6181 6.35397 29.1758 -23.2005 5.63689 30.1844 -22.0723 7.06266 31.8593 -22.5891 4.45378 29.1255 -20.5158 7.29608 32.3622 -23.8118 6.82 31.2432
 -23.8118 6.82 -31.2432 -22.2482 7.21532 -31.5012 -22.3832 6.40284 -32.7006 -20.9945 6.81914 -32.874 -20.809 7.58707 -31.6688 -21.1579 5.96327 -34.0213
 43.3953 2.13312 -1.3795 43.602 1.80634 0.144242 44.2029 0.748265 -1.143 44.3783 0.401596 0.37507 43.8013 1.47475 1.67881 44.878 -0.718881 -0.90848
 -19.378 10.1306 23.5637 -17.1757 10.2058 23.705 -18.6944 10.1935 22.3796 -18.8038 8.52272 22.5691 -19.4851 8.40676 23.7492 -17.8501 10.0984 24.8732 -18.9131 6.85198 22.7585 -15.8678 10.1876 24.9021 -20.0571 9.96153 24.74
 -10.7178 10.1306 -28.5637 -11.9231 10.2054 -26.7492 -10.0341 10.1935 -27.3796 -10.1435 8.52272 -27.5691 -10.8249 8.40676 -28.7492 -12.5975 10.0972 -27.9174 -10.2529 6.85198 -27.7585 -13.6 10.1864 -26.2345 -11.3969 9.96153 -29.74
 -13.0392 0 -22.494 -13.1745 0.111007 -24.4622 -11.9474 0 -23.1244 -12.0515 0.111007 -25.1106 -13.2349 -0.139112 -26.341 -10.8019 0 -23.7857
 26 0 -2.56387 27.439 0.12133 -3.72334 27.5803 0.11886 -2.18536 28.8816 -0.0237432 -3.3123 28.7371 0.00638008 -5 29.0273 -0.0513277 -1.81534
 -16.4022 -6.97265 32.0401 -15.1196 -7.11838 32.8125 -16.1669 -8.41972 32.3725 -14.8362 -8.56096 33.1437 -13.6731 -7.26293 33.6824 -15.7796 -10 32.4588
 -15.2204 0 -21.2347 -16.944 0.12133 -21.9012 -15.6822 0.118856 -22.793 -17.3088 -0.0237668 -23.3565 -18.6987 0.00638008 -22.387 -16.0848 -0.0513791 -24.2316
 -13.2349 -0.139112 -26.341 -13.6833 -0.657623 -27.8666 -12.3874 -0.430655 -27.9623 -12.7562 -1.12367 -29.4344 -14.0505 -1.45104 -29.2683 -11.3405 -0.835778 -29.6424
 -12.8185 0 18.641 -11.1433 0 18.4391 -11.3845 0 19.8485 -9.70934 0 19.6466 -9.46806 0 18.2371 -9.95061 0 21.0561
 -21.4384 1.63697 27.1323 -20.5894 1.77184 25.6619 -20.7196 0.400598 25.8874 -19.8706 0.535467 24.4169 -19.7404 1.90671 24.1914 -20.0008 -0.835778 24.6424
 -12.7781 1.63697 -32.1323 -11.9291 1.77184 -30.6619 -12.0593 0.400598 -30.8874 -11.2103 0.535467 -29.4169 -11.0802 1.90671 -29.1914 -11.3405 -0.835778 -29.6424
 -19.1193 8.63512 30.3618 -17.5553 8.82804 30.7455 -18.4027 9.19084 29.1419 -16.8293 9.34442 29.5086 -15.9762 9.00825 31.1292 -17.6631 9.62534 27.882
 -18.7662 8.81736 -30.0763 -19.7969 8.24897 -30.9006 -20.6003 8.55052 -29.7219 -21.6662 7.9357 -30.4931 -20.809 7.58707 -31.6688 -22.6472 8.25416 -29.226
 -15.1981 0 21.2476 -14.0083 0 19.9443 -14.0526 0 21.909 -12.8896 0 20.5902 -12.8185 0 18.641 -12.9608 0 22.5393
 -24.0391 1.10489 -31.6369 -23.2743 -0.254901 -30.3123 -23.3182 1.58469 -30.3882 -23.9952 -0.734706 -31.561 -23.2304 -2.09449 -30.2363 -24.76 0.625081 -32.8857
 31.9305 9.86285 -1.81346 32.4533 9.75164 -0.220054 33.4474 9.49949 -1.65378 33.9702 9.3443 -0.0676245 32.9781 9.62534 1.35567 34.9475 9.00797 -1.49535
 41.9697 4.03479 1.01379 41.1735 4.90241 -0.294842 40.8767 5.19862 1.26847 40.0076 5.99301 -0.0453119 40.3227 5.71687 -1.61994 39.6864 6.2616 1.52572
 37.957 -5.17462 5 37.8692 -3.50576 5 36.5606 -4.91663 5 36.4728 -3.24777 5 37.7813 -1.83691 5 35.1642 -4.65864 5
 17.9258 1.37676 -5 16.8795 2.88807 -5 18.645 2.75351 -5 16.1603 1.51131 -5 15.1139 3.02262 -5 17.2066 0 -5
 -13.293 1.37676 -13.0242 -12.7699 2.88807 -12.1181 -13.6526 2.75351 -13.6471 -12.4103 1.51131 -11.4952 -11.8871 3.02262 -10.589 -12.9334 0 -12.4014
 -19.7463 1.96334 -24.2016 -20.5803 1.87288 -25.646 -19.8736 0.56378 -24.422 -20.7075 0.473321 -25.8664 -21.4142 1.78242 -27.0905 -20.0008 -0.835778 -24.6424
 -14.6684 3.71471 15.4064 -15.3961 3.70772 16.6667 -15.2227 5.30304 16.3665 -15.9504 5.29605 17.6268 -16.1237 3.70073 17.9271 -15.777 6.89137 17.3266
 20.6765 3.71471 5 22.1318 3.70772 5 21.7852 5.30304 5 23.2405 5.29605 5 23.5871 3.70073 5 22.8938 6.89137 5
 -6.00815 3.71471 -20.4064 -6.7358 3.70772 -21.6667 -6.56245 5.30304 -21.3665 -7.2901 5.29605 -22.6268 -7.46345 3.70073 -22.9271 -7.11676 6.89137 -22.3266
 -15.199 10 21.2471 -15.5785 10.1938 23.1741 -14.0531 10 21.9087 -14.465 10.1938 23.817 -15.8678 10.1876 24.9021 -12.9611 10 22.5391
 26 10 2.53915 27.8586 10.1938 1.90434 26 10 1.21601 27.8586 10.1938 0.618514 29.4997 10.1876 1.29089 26 10 -0.0449491
 -7.68044 0 16.1981 -6.72608 0 15.1524 -5.97681 0 16.7998 -5.02246 0 15.754 -5.77173 0 14.1066 -4.27319 0 17.4014
 -21.9122 -4.65864 27.9531 -20.5922 -4.12659 28.3798 -20.5944 -5.59754 29.1848 -19.447 -5.02748 29.5833 -19.3653 -3.61931 28.7064 -19.3956 -6.5855 30.2146
 29.4145 -0.13554 1.68979 30.9725 -0.656585 2.0499 30.4025 -0.428038 3.24291 31.8734 -1.12628 3.64352 32.3807 -1.45687 2.41768 31.3413 -0.835778 5
 -13.9869 8.25416 -34.226 -16.0674 7.93462 -33.7278 -14.9968 8.5468 -32.9664 -16.9077 8.24393 -32.58 -17.9134 7.58476 -33.3449 -15.863 8.81054 -31.7714
 -22.885 4.0344 -35.2502 -21.4934 4.00418 -36.0835 -23.3079 2.96279 -35.99 -21.9154 2.93076 -36.821 -20.142 3.9739 -36.8936 -23.6873 1.83048 -36.6542
 26 2.44027 5 27.3685 1.22333 5 27.2064 3.0705 5 28.575 1.85356 5 28.7371 0.00638008 5 28.4129 3.70073 5
 -17.3301 2.44027 20.0167 -18.0144 1.22333 21.2018 -17.9333 3.0705 21.0615 -18.6176 1.85356 22.2466 -18.6987 0.00638008 22.387 -18.5366 3.70073 22.1063
 -8.66987 2.44027 -25.0167 -9.35414 1.22333 -26.2018 -9.27309 3.0705 -26.0615 -9.95735 1.85356 -27.2466 -10.0384 0.00638008 -27.387 -9.8763 3.70073 -27.1063
 -10.801 10 -23.7862 -12.264 10.1944 -25.1003 -11.9469 10 -23.1247 -13.3786 10.1944 -24.4568 -13.6 10.1864 -26.2345 -13.0389 10 -22.4942
 -15.3933 1.14576 -36.6621 -15.3495 -0.693828 -36.5861 -16.1288 0.706837 -37.9359 -14.614 -0.254901 -35.3123 -14.5702 -2.09449 -35.2363 -14.6579 1.58469 -35.3882
 -3.2602 3.12845 -15.6468 -3.82743 4.2765 -16.6293 -3.12454 4.97333 -15.4119 -3.69177 6.12137 -16.3943 -4.39466 5.42454 -17.6118 -2.98887 6.8182 -15.1769
 15.1806 3.12845 5 16.3151 4.2765 5 14.9093 4.97333 5 16.0438 6.12137 5 17.4496 5.42454 5 14.638 6.8182 5
 -11.9205 3.12845 10.6468 -12.4877 4.2765 11.6293 -11.7848 4.97333 10.4119 -12.352 6.12137 11.3943 -13.0549 5.42454 12.6118 -11.6491 6.8182 10.1769
 -18.7351 -5.9042 -42.4502 -20.3172 -5.51017 -41.4963 -18.6506 -4.54596 -42.3038 -17.8964 -5.95188 -40.9974 -17.9543 -7.31464 -41.0978 -20.372 -6.85903 -41.5911 -17.1421 -7.3578 -39.691 -21.7698 -6.45261 -40.7606 -18.7666 -7.27148 -42.5047
 -27.3954 -5.9042 37.4502 -25.7782 -5.51017 38.3434 -27.3109 -4.54596 37.3038 -26.5566 -5.95245 35.9974 -26.6146 -7.3152 36.0979 -25.833 -6.85903 38.4382 -25.8024 -7.35893 34.691 -24.4148 -6.45261 39.2335 -27.4268 -7.27148 37.5047
 46.1305 -5.9042 5 46.1004 -5.55046 3.10089 45.9615 -4.54596 5 44.4466 -5.93859 5 44.5625 -7.30135 5 46.2063 -6.89945 3.10089 42.9316 -7.33122 5 46.1895 -6.53273 1.43316 46.1935 -7.27148 5
 -18.1166 5.97023 -35.7678 -18.0358 6.821 -34.5792 -16.704 6.40616 -35.9746 -16.6494 7.21409 -34.7358 -17.9134 7.58476 -33.3449 -15.1515 6.82 -36.2432
 -18.1166 5.97023 -35.7678 -19.655 5.96675 -34.8843 -18.0358 6.821 -34.5792 -19.5493 6.81784 -33.7104 -21.1579 5.96327 -34.0213 -17.9134 7.58476 -33.3449
 -10.8019 0 -23.7857 -10.3432 0 -22.015 -11.9474 0 -23.1244 -11.4618 0 -21.3691 -9.88442 0 -20.2443 -13.0392 0 -22.494
 26 0 2.53815 24.2371 0 2.05006 26 0 1.21538 24.2371 0 0.758353 22.4742 0 1.56197 26 0 -0.0452634
 18.3134 0 -2.21334 16.7955 0 -1.85024 17.76 0 -3.60667 16.2421 0 -3.24357 15.2776 0 -1.48715 17.2066 0 -5
 -11.0735 0 -14.7532 -10.0001 0 -13.6202 -12.0035 0 -13.5773 -10.9301 0 -12.4443 -8.92672 0 -12.4872 -12.9334 0 -12.4014
 37.7744 -1.77798 -5 37.8657 -3.47594 -5 36.4693 -3.21831 -5 36.5606 -4.91627 -5 37.957 -5.17389 -5 35.1642 -4.65864 -5
 -11.0861 1.96334 29.2016 -11.9337 1.87041 30.6698 -11.2133 0.56378 29.422 -12.061 0.470848 30.8902 -12.7814 1.77747 32.138 -11.3405 -0.835778 29.6424
 -19.0846 4.03415 37.4445 -20.5186 3.99925 36.6512 -19.514 2.96265 38.1805 -20.9464 2.92568 37.3848 -21.9127 3.96429 35.8807 -19.8998 1.83048 38.8408
 -22.5891 4.45378 -29.1255 -21.969 5.46883 -28.0514 -22.6181 6.35397 -29.1758 -21.998 7.36902 -28.1017 -21.3489 6.48388 -26.9774 -22.6472 8.25416 -29.226
 -13.9289 4.45378 34.1255 -13.3086 5.46891 33.0512 -13.9579 6.35397 34.1758 -13.3377 7.3691 33.1015 -12.6884 6.48405 31.977 -13.9869 8.25416 34.226
 42.4829 -1.96396 -5 41.4684 -0.722985 -5 43.3685 -0.664944 -5 42.354 0.576033 -5 40.4538 0.517992 -5 44.2542 0.634074 -5
 40.4538 0.517992 5 41.4682 -0.723145 5 42.354 0.576033 5 43.3684 -0.665104 5 42.4827 -1.96428 5 44.2542 0.634074 5
 -13.6 10.1864 -26.2345 -15.469 10.0669 -26.5301 -14.9154 10.1994 -25.1956 -16.7988 10.0983 -25.4807 -17.3635 9.86177 -26.8517 -16.2547 10.2083 -24.1411
 31.454 9.96153 -5 30.1723 10.1317 -3.44833 31.6913 9.90897 -3.31126 30.4021 10.1061 -1.9373 28.9098 10.2113 -2.062 31.9305 9.86285 -1.81346
 -11.3969 9.96153 29.74 -12.0998 10.1317 27.8541 -12.978 9.90897 29.1011 -13.5233 10.1061 27.2976 -12.6692 10.2113 26.0676 -14.3948 9.86285 28.5594
 20.8426 10 -5 21.8466 8.50098 -5 20.0871 8.68585 -5 21.0912 7.18683 -5 22.8507 7.00196 -5 19.3317 7.37171 -5
 -14.7514 10 -15.5502 -15.2534 8.50098 -16.4197 -14.3737 8.68585 -14.896 -14.8757 7.18683 -15.7655 -15.7555 7.00196 -17.2893 -13.996 7.37171 -14.2418
 -6.09115 10 20.5502 -6.59319 8.50098 21.4197 -5.71345 8.68585 19.896 -6.21548 7.18683 20.7655 -7.09523 7.00196 22.2893 -5.33574 7.37171 19.2418
 -6.44995 0 21.1716 -7.83111 0 20.4744 -5.71161 0 19.8928 -6.30615 1.59873 20.9226 -7.04449 1.59873 22.2014 -8.56945 0 21.7533 -6.90069 3.19746 21.9523 -9.95061 0 21.0561 -7.1883 0 22.4505
 -15.1102 0 -16.1716 -13.8158 0 -17.0192 -14.3719 0 -14.8928 -14.9664 1.59873 -15.9226 -15.7047 1.59873 -17.2014 -14.5542 0 -18.298 -15.5609 3.19746 -16.9523 -13.2598 0 -19.1455 -15.8485 0 -17.4505
 21.5602 0 -5 21.6469 0 -3.45528 20.0835 0 -5 21.2725 1.59873 -5 22.7492 1.59873 -5 23.1236 0 -3.45528 22.4616 3.19746 -5 23.2104 0 -1.91055 23.0368 0 -5
 -8.66987 2.46486 25.0167 -7.78528 2.83116 23.4845 -8.66987 3.78917 25.0167 -7.78528 4.12444 23.4845 -6.90069 3.19746 21.9523 -8.66987 5.05142 25.0167
 -17.3301 2.46486 -20.0167 -16.4455 2.83116 -18.4845 -17.3301 3.78917 -20.0167 -16.4455 4.12444 -18.4845 -15.5609 3.19746 -16.9523 -17.3301 5.05142 -20.0167
 26 2.46486 -5 24.2308 2.83116 -5 26 3.78917 -5 24.2308 4.12444 -5 22.4616 3.19746 -5 26 5.05142 -5
 -14.6596 -1.87244 35.3911 -14.6842 -3.51358 35.4338 -13.9558 -3.26554 34.1721 -13.9804 -4.90669 34.2148 -14.7088 -5.15473 35.4765 -13.252 -4.65864 32.9531
 -15.5609 3.19746 -16.9523 -14.97 4.11431 -15.9288 -15.6582 5.09971 -17.1208 -15.0673 6.01656 -16.0973 -14.379 5.03117 -14.9052 -15.7555 7.00196 -17.2893
 -6.90069 3.19746 21.9523 -6.30974 4.11431 20.9288 -6.99796 5.09971 22.1208 -6.40701 6.01656 21.0973 -5.71879 5.03117 19.9052 -7.09523 7.00196 22.2893
 22.4616 3.19746 -5 21.2797 4.11431 -5 22.6562 5.09971 -5 21.4743 6.01656 -5 20.0978 5.03117 -5 22.8507 7.00196 -5
 -20.142 3.9739 -36.8936 -20.6663 5.00681 -35.4924 -19.156 5.0106 -36.3601 -19.655 5.96675 -34.8843 -21.1579 5.96327 -34.0213 -18.1166 5.97023 -35.7678
 -11.0802 1.90671 -29.1914 -11.9291 1.77184 -30.6619 -11.256 3.25932 -29.4959 -12.105 3.12445 -30.9664 -12.7781 1.63697 -32.1323 -11.4318 4.61192 -29.8005
 -15.4122 1.13138 36.6948 -14.6587 -0.143873 35.3897 -14.6579 1.58469 35.3882 -15.4131 -0.597187 36.6962 -14.6596 -1.87244 35.3911 -16.1666 0.678063 38.0013
 -20.0571 9.96153 -24.74 -18.0766 10.1252 -24.4742 -18.6179 9.90846 -25.848 -16.7988 10.0983 -25.4807 -16.2547 10.2083 -24.1411 -17.3635 9.86177 -26.8517
 28.4757 3.75814 -5 28.6064 1.88226 -5 27.2378 3.1115 -5 27.3685 1.23562 -5 28.7371 0.00638008 -5 26 2.46486 -5
 -9.90771 3.75814 27.1607 -9.97306 1.88226 27.2738 -9.28879 3.1115 26.0887 -9.35414 1.23562 26.2018 -10.0384 0.00638008 27.387 -8.66987 2.46486 25.0167
 -18.568 3.75814 -22.1607 -18.6333 1.88226 -22.2738 -17.949 3.1115 -21.0887 -18.0144 1.23562 -21.2018 -18.6987 0.00638008 -22.387 -17.3301 2.46486 -20.0167
 -16.0423 10 17.7861 -15.6206 10 19.5166 -14.4664 10 18.2897 -14.0447 10 20.0202 -15.199 10 21.2471 -12.8904 10 18.7932
 23.4243 10 5 24.7122 10 3.76957 23.0725 10 3.38341 24.3603 10 2.15299 26 10 2.53915 22.7206 10 1.76683
 -7.38204 10 -22.7861 -9.09154 10 -23.2862 -8.60612 10 -21.6731 -10.3156 10 -22.1731 -10.801 10 -23.7862 -9.8302 10 -20.5601
 -15.1102 0 16.1716 -14.5201 1.85736 15.1496 -14.3719 0 14.8928 -13.5952 0 16.7669 -14.3335 0 18.0458 -15.2585 1.85736 16.4285 -12.8185 0 18.641 -14.6684 3.71471 15.4064 -15.8485 0 17.4505
 -15.9762 9.00825 31.1292 -16.7461 8.44368 32.2091 -15.0754 8.65684 32.6402 -15.8358 8.02336 33.6776 -17.4831 7.77311 33.2336 -13.9869 8.25416 34.226
 -5.77173 0 14.1066 -6.72608 0 15.1524 -7.34923 0 13.2969 -8.30358 0 14.3427 -7.68044 0 16.1981 -8.92672 0 12.4872
 -7.46345 3.70073 -22.9271 -7.32587 1.85037 -22.6888 -8.06666 3.0705 -23.9719 -7.92908 1.22014 -23.7336 -7.1883 0 -22.4505 -8.66987 2.44027 -25.0167
 -16.1237 3.70073 17.9271 -15.9861 1.85037 17.6888 -16.7269 3.0705 18.9719 -16.5893 1.22014 18.7336 -15.8485 0 17.4505 -17.3301 2.44027 20.0167
 23.5871 3.70073 5 23.312 1.85037 5 24.7936 3.0705 5 24.5184 1.22014 5 23.0368 0 5 26 2.44027 5
 -23.9785 -1.08681 38.1416 -23.5629 0.180962 37.7624 -25.1431 -0.211355 37.0572 -24.6786 1.01589 36.6284 -23.0996 1.38956 37.298 -26.4572 0.634074 35.8252
 45.8694 -4.1026 -1.672 46.1082 -5.61646 -1.85411 45.912 -4.32521 -3.23308 46.132 -5.83037 -3.43512 46.2114 -7.09556 -2.03802 45.9615 -4.54596 -5
 -21.0424 -1.08681 -39.8368 -20.9252 0.18084 -39.2854 -19.521 -0.211355 -40.3031 -19.3856 1.01577 -39.6843 -20.7581 1.38933 -38.65 -17.797 0.634074 -40.8252
 -9.46806 0 18.2371 -11.1433 0 18.4391 -10.3236 0 16.8174 -11.9988 0 17.0193 -12.8185 0 18.641 -11.1792 0 15.3977
 -4.27319 0 17.4014 -3.75001 1.51131 16.4952 -4.63279 1.37676 18.0242 -4.10962 2.88807 17.1181 -3.22684 3.02262 15.589 -4.9924 2.75351 18.6471
 2 2.39118 -3.4641 -4.43469e-10 2.39118 -4 1.0529 1.19559 -3.85894 -1.0529 1.19559 -3.85894 -2 2.39118 -3.4641 -4.43469e-10 0 -4
 -2 2.39118 -3.4641 -3.4641 2.39118 -2 -2.81549 1.19559 -2.84131 -3.86839 1.19559 -1.01763 -4 2.39118 -1.37574e-15 -3.4641 0 -2
 4 2.39118 0 3.4641 2.39118 -2 3.86839 1.19559 -1.01763 2.81549 1.19559 -2.84131 2 2.39118 -3.4641 3.4641 0 -2
 2 2.39118 3.4641 3.4641 2.39118 2 2.81549 1.19559 2.84131 3.86839 1.19559 1.01763 4 2.39118 0 3.4641 0 2
 -4 2.39118 -1.37574e-15 -3.4641 2.39118 2 -3.86839 1.19559 1.01763 -2.81549 1.19559 2.84131 -2 2.39118 3.4641 -3.4641 0 2
 -2 2.39118 3.4641 -4.43472e-10 2.39118 4 -1.0529 1.19559 3.85894 1.0529 1.19559 3.85894 2 2.39118 3.4641 -4.43472e-10 0 4
 -22.9536 3.01924 -29.7569 -22.0017 3.1181 -28.108 -22.5891 4.45378 -29.1255 -22.3662 1.68356 -28.7394 -21.4142 1.78242 -27.0905 -23.3182 1.58469 -30.3882
 -24.4148 -6.45261 39.2335 -23.1921 -5.04987 39.7643 -24.6569 -5.01627 38.9128 -23.3602 -3.56451 39.3471 -21.9202 -3.59903 40.1874 -24.8438 -3.52997 38.4815
 -21.7698 -6.45261 -40.7606 -22.8409 -5.04987 -39.9671 -21.3711 -5.01627 -40.8099 -22.3955 -3.56451 -39.9041 -23.8432 -3.59903 -39.0772 -20.904 -3.52997 -40.7561
 29.1426 6.89042 5 28.9355 8.54194 5 27.5713 7.21628 5 27.3643 8.8678 5 28.7285 10.1935 5 26 7.54214 5
 -18.1444 -1.55046 27.065 -17.3582 -2.50398 28.7911 -18.7967 -2.50251 27.9589 -17.9193 -3.62099 29.5426 -16.5278 -3.62266 30.3473 -19.3653 -3.61931 28.7064
 32.3807 -1.45687 2.41768 32.379 -1.4557 0.747301 33.4975 -2.38851 2.29892 33.496 -2.38707 0.637135 32.3773 -1.45452 -0.860154 34.4495 -3.48883 2.18104
 -14.2934 3.01924 -34.7569 -13.718 1.61083 -33.7603 -14.6579 1.58469 -35.3882 -13.3535 3.04538 -33.1289 -12.7781 1.63697 -32.1323 -13.9289 4.45378 -34.1255
 -14.2934 3.01924 34.7569 -13.3551 3.11563 33.1318 -13.9289 4.45378 34.1255 -13.7196 1.68108 33.7631 -12.7814 1.77747 32.138 -14.6579 1.58469 35.3882
 -15.8678 10.1876 24.9021 -15.1308 10.0687 26.7106 -14.2834 10.2024 25.4777 -13.5233 10.1061 27.2976 -14.3948 9.86285 28.5594 -12.6692 10.2113 26.0676
 29.4997 10.1876 1.29089 30.6974 10.0687 -0.251586 29.206 10.2024 -0.369066 30.4021 10.1061 -1.9373 31.9305 9.86285 -1.81346 28.9098 10.2113 -2.062
 -18.9131 6.85198 22.7585 -18.8038 8.52272 22.5691 -18.1216 7.19706 21.3876 -18.0123 8.8678 21.1981 -18.6944 10.1935 22.3796 -17.3301 7.54214 20.0167
 -10.2529 6.85198 -27.7585 -10.1435 8.52272 -27.5691 -9.46137 7.19706 -26.3876 -9.352 8.8678 -26.1981 -10.0341 10.1935 -27.3796 -8.66987 7.54214 -25.0167
 -12.7252 9.30984 32.0407 -13.642 9.61478 30.2512 -14.4373 9.15979 31.5352 -15.1897 9.4996 29.8515 -14.3948 9.86285 28.5594 -15.9762 9.00825 31.1292
 17.2066 0 5 16.2208 0 3.60554 17.8387 0 3.25524 16.8529 0 1.86078 15.2349 0 2.21108 18.4708 0 1.51048
 -4.27319 0 -17.4014 -4.98789 0 -15.8504 -6.10024 0 -17.0764 -6.81495 0 -15.5254 -5.7026 0 -14.2993 -7.9273 0 -16.7514
 -14.0505 -1.45104 -29.2683 -15.5098 -1.43823 -28.4047 -14.7353 -2.38488 -30.1678 -16.1865 -2.36918 -29.3115 -16.9113 -1.42546 -27.5743 -15.3362 -3.4887 -30.9244
 -2.95078 6.69727 15.1109 -3.08881 4.85994 15.35 -2.31032 5.6792 14.0016 -2.44835 3.84188 14.2407 -3.22684 3.02262 15.589 -1.66987 4.66114 12.8923
 14.5618 6.69727 -5 14.8379 4.85994 -5 13.2809 5.6792 -5 13.557 3.84188 -5 15.1139 3.02262 -5 12 4.66114 -5
 -11.611 6.69727 -10.1109 -11.7491 4.85994 -10.35 -10.9706 5.6792 -9.0016 -11.1086 3.84188 -9.24067 -11.8871 3.02262 -10.589 -10.3301 4.66114 -7.8923
 46.2114 -7.09556 -2.03802 46.1082 -5.61646 -1.85411 46.2032 -6.813 -0.288609 46.073 -5.33505 -0.114974 45.8694 -4.1026 -1.672 46.1895 -6.53273 1.43316
 -23.71 -0.399239 -37.9788 -22.3807 -0.740934 -38.9094 -23.8126 -1.97862 -38.5923 -22.4728 -2.33455 -39.4911 -21.0424 -1.08681 -39.8368 -23.8432 -3.59903 -39.0772
 -21.0355 -0.399239 39.5229 -22.5062 -0.740934 38.8369 -21.5156 -1.97862 39.9185 -22.9639 -2.33455 39.2076 -23.9785 -1.08681 38.1416 -21.9202 -3.59903 40.1874
 -10.0384 0.00638008 -27.387 -10.5072 0.12133 -25.6176 -11.7233 -0.0621712 -26.8121 -12.0515 0.111007 -25.1106 -10.8019 0 -23.7857 -13.2349 -0.139112 -26.341
 28.7371 0.00638008 5 27.439 0.12133 3.70932 29.0742 -0.0606681 3.24291 27.7651 0.111388 2.10865 26 0 2.53815 29.4145 -0.13554 1.68979
 -19.3956 -6.5855 30.2146 -19.8818 -8.23492 30.2191 -20.7781 -6.92581 29.5029 -21.273 -8.56096 29.4273 -20.1981 -10 29.9078 -22.3333 -7.26293 28.6824
 37.585 1.97244 5 37.6832 0.0677654 5 39.0194 1.24521 5 39.1175 -0.659457 5 37.7813 -1.83691 5 40.4538 0.517992 5
 19.551 7.52448 5 18.5003 6.47451 5 20.1138 5.6196 5 19.0631 4.56963 5 17.4496 5.42454 5 20.6765 3.71471 5
 -14.1056 7.52448 14.4317 -13.5803 6.47451 13.5217 -14.387 5.6196 14.9191 -13.8617 4.56963 14.0091 -13.0549 5.42454 12.6118 -14.6684 3.71471 15.4064
 -5.44539 7.52448 -19.4317 -4.92002 6.47451 -18.5217 -5.72677 5.6196 -19.9191 -5.2014 4.56963 -19.0091 -4.39466 5.42454 -17.6118 -6.00815 3.71471 -20.4064
 -13.252 -4.65864 -32.9531 -14.3731 -4.05792 -31.9221 -15.0181 -5.6188 -32.413 -16.0188 -4.97393 -31.5348 -15.3362 -3.4887 -30.9244 -16.5404 -6.62905 -31.8749
 34.4478 -3.48764 -5 36.4693 -3.21831 -5 35.1642 -4.65864 -5 35.0113 -4.36393 -3.06355 34.2486 -3.22464 -3.06355 35.6654 -2.11077 -5 34.8439 -4.07741 -1.36573 37.7744 -1.77798 -5 33.5564 -2.44356 -5
 -11.926 -1.55224 30.6565 -12.6147 -0.33304 31.8494 -12.4481 -2.44356 31.5607 -13.7346 -1.75143 29.9161 -13.1649 -0.988675 28.9294 -12.061 0.470848 30.8902 -14.7785 -1.15612 28.3286 -12.7814 1.77747 32.138 -11.3405 -0.835778 29.6424
 21.5602 0 5 20.38 1.85736 5 20.0835 0 5 21.2789 0 3.28098 22.7555 0 3.28098 21.8567 1.85736 5 22.4742 0 1.56197 20.6765 3.71471 5 23.0368 0 5
 -6.44995 0 -21.1716 -5.85988 1.85736 -20.1496 -5.71161 0 -19.8928 -7.79801 0 -20.0685 -8.53636 0 -21.3474 -6.59822 1.85736 -21.4285 -9.88442 0 -20.2443 -6.00815 3.71471 -20.4064 -7.1883 0 -22.4505
 -16.5404 -6.62905 -31.8749 -16.2641 -8.2556 -32.309 -15.2002 -6.94748 -32.7284 -14.8483 -8.56096 -33.1366 -15.8019 -10 -32.446 -13.6731 -7.26293 -33.6824
 -15.1981 0 21.2476 -15.5233 0 19.349 -14.0083 0 19.9443 -14.3335 0 18.0458 -15.8485 0 17.4505 -12.8185 0 18.641
 -16.0526 -0.124079 24.6408 -17.1389 -0.679546 25.9278 -17.9459 -0.419562 24.7172 -19.014 -1.16802 25.9057 -18.1444 -1.55046 27.065 -20.0008 -0.835778 24.6424
 35.1642 -4.65864 5 34.832 -4.058 3.5138 35.5804 -5.62128 3.18303 35.3204 -4.97638 1.87885 34.4495 -3.48883 2.18104 35.8759 -6.63412 1.58154
 -12.7673 5.91251 -32.1135 -12.7727 3.77474 -32.1229 -13.3481 5.18315 -33.1195 -13.3535 3.04538 -33.1289 -12.7781 1.63697 -32.1323 -13.9289 4.45378 -34.1255
 -18.6987 0.00638008 22.387 -16.9319 0.12133 21.9082 -17.2816 -0.0558159 23.5665 -15.6491 0.112582 22.9987 -15.1981 0 21.2476 -16.0526 -0.124079 24.6408
 35.8759 -6.63412 1.58154 36.1126 -8.258 2.05321 35.9442 -6.95 3.18303 36.1213 -8.56096 3.70932 36 -10 2.53815 36.0064 -7.26293 5
 -21.554 -3.48764 -27.3326 -22.5713 -3.37657 -29.0947 -21.9122 -4.65864 -27.9531 -20.1502 -4.37176 -28.7989 -19.7694 -3.23168 -28.1394 -22.1694 -2.26902 -28.3985 -18.5899 -4.0927 -29.5121 -23.2304 -2.09449 -30.2363 -21.1083 -2.44356 -26.5607
 34.1106 9.30984 -5 33.0193 9.61478 -3.31126 34.5293 9.15965 -3.13532 33.4474 9.49949 -1.65378 31.9305 9.86285 -1.81346 34.9475 9.00797 -1.49535
 -1.66987 4.65674 -12.8923 -2.46503 3.89259 -14.2696 -2.32937 5.73747 -14.0346 -3.12454 4.97333 -15.4119 -3.2602 3.12845 -15.6468 -2.98887 6.8182 -15.1769
 12 4.65674 5 13.5903 3.89259 5 13.319 5.73747 5 14.9093 4.97333 5 15.1806 3.12845 5 14.638 6.8182 5
 -10.3301 4.65674 7.8923 -11.1253 3.89259 9.26957 -10.9896 5.73747 9.03459 -11.7848 4.97333 10.4119 -11.9205 3.12845 10.6468 -11.6491 6.8182 10.1769
 31.2118 5.1653 -5 32.5594 3.4846 -5 30.9905 3.56696 -5 32.3381 1.88626 -5 33.907 1.8039 -5 30.7692 1.96862 -5
 32.5123 -1.55224 -5 31.8716 -1.12523 -2.78378 31.3413 -0.835778 -5 32.6242 0.484059 -5 33.7317 -0.31983 -5 32.9868 -1.92393 -2.78378 33.907 1.8039 -5 32.3773 -1.45452 -0.860154 33.5564 -2.44356 -5
 -15.1379 9.62521 -29.3406 -16.2493 9.75097 -28.0958 -14.3534 9.99149 -27.7601 -15.469 10.0669 -26.5301 -17.3635 9.86177 -26.8517 -13.6 10.1864 -26.2345
 -24.912 -4.79818 33.1488 -24.0712 -3.44634 31.6926 -24.1116 -5.01769 31.7626 -23.2708 -3.66584 30.3063 -23.2304 -2.09449 30.2363 -23.3113 -5.23719 30.3763
 -23.3113 -5.23719 -30.3763 -23.2708 -3.66584 -30.3063 -24.1116 -5.01769 -31.7626 -24.0712 -3.44634 -31.6926 -23.2304 -2.09449 -30.2363 -24.912 -4.79818 -33.1488
 -16.2526 -4.79566 -38.1502 -15.4114 -3.44508 -36.6933 -15.4518 -5.01643 -36.7633 -14.6106 -3.66584 -35.3063 -14.5702 -2.09449 -35.2363 -14.651 -5.23719 -35.3763
 -12.9611 10 22.5391 -14.465 10.1938 23.817 -12.8711 10.174 24.3673 -14.2834 10.2024 25.4777 -15.8678 10.1876 24.9021 -12.6692 10.2113 26.0676
 26 10 -0.0449491 27.8586 10.1938 0.618514 27.5383 10.174 -1.03698 29.206 10.2024 -0.369066 29.4997 10.1876 1.29089 28.9098 10.2113 -2.062
 -8.66987 2.46486 25.0167 -7.92908 1.23243 23.7336 -7.78528 2.83116 23.4845 -7.04449 1.59873 22.2014 -7.1883 0 22.4505 -6.90069 3.19746 21.9523
 -17.3301 2.46486 -20.0167 -16.5893 1.23243 -18.7336 -16.4455 2.83116 -18.4845 -15.7047 1.59873 -17.2014 -15.8485 0 -17.4505 -15.5609 3.19746 -16.9523
 26 2.46486 -5 24.5184 1.23243 -5 24.2308 2.83116 -5 22.7492 1.59873 -5 23.0368 0 -5 22.4616 3.19746 -5
 22.4742 0 1.56197 20.4725 0 1.53622 21.4962 0 0.201475 19.4945 0 0.175728 18.4708 0 1.51048 20.5182 0 -1.15902
 -9.88442 0 -20.2443 -8.90586 0 -18.4978 -10.5736 0 -18.717 -9.59507 0 -16.9706 -7.9273 0 -16.7514 -11.2628 0 -17.1898
 -13.2349 -0.139112 -26.341 -15.1184 -0.648467 -27.0142 -13.6833 -0.657623 -27.8666 -15.5098 -1.43823 -28.4047 -16.9113 -1.42546 -27.5743 -14.0505 -1.45104 -29.2683
 45.6377 -3.07068 1.69733 45.7609 -3.58767 0.0121176 45.2976 -1.88269 0.38395 45.4549 -2.3968 -1.28734 45.8694 -4.1026 -1.672 44.878 -0.718881 -0.90848
 29.4145 -0.13554 1.68979 30.9706 -0.655745 0.404255 30.9725 -0.656585 2.0499 32.379 -1.4557 0.747301 32.3773 -1.45452 -0.860154 32.3807 -1.45687 2.41768
 -19.3653 -3.61931 28.7064 -17.9193 -3.62099 29.5426 -19.447 -5.02748 29.5833 -18.0222 -5.02937 30.4069 -16.5278 -3.62266 30.3473 -19.3956 -6.5855 30.2146
 -18.0392 -10 -31.1543 -17.3847 -8.2556 -31.662 -18.8828 -8.46014 -30.8056 -18.0715 -6.84319 -31.0459 -16.5404 -6.62905 -31.8749 -19.6108 -7.05644 -30.2063
 -16.5404 -6.62905 -31.8749 -17.619 -5.31187 -30.7776 -18.0715 -6.84319 -31.0459 -19.166 -5.5188 -29.9764 -18.5899 -4.0927 -29.5121 -19.6108 -7.05644 -30.2063
 -12.8031 -0.0339412 26.0215 -14.4345 -0.076471 25.3268 -12.9277 0.119925 24.3327 -14.5293 0.112582 23.6452 -16.0526 -0.124079 24.6408 -12.9608 0 22.5393
 36 -10 -0.0452634 36.1126 -8.258 0.760098 36.1199 -8.46337 -0.970648 35.9235 -6.84907 -0.162755 35.8759 -6.63412 1.58154 35.9661 -7.06312 -1.92297
 -13.0392 0 -22.494 -11.4618 0 -21.3691 -13.1495 0 -20.8198 -11.5721 0 -19.6949 -9.88442 0 -20.2443 -13.2598 0 -19.1455
 26 0 -0.0452634 24.2371 0 0.758353 24.6052 0 -0.977909 22.8423 0 -0.174292 22.4742 0 1.56197 23.2104 0 -1.91055
 35.8544 8.63484 1.57568 34.4393 9.19073 1.46541 34.9924 8.99096 3.17979 33.5439 9.47208 3.05798 32.9781 9.62534 1.35567 34.1106 9.30984 5
 -13.0389 10 -22.4942 -13.3786 10.1944 -24.4568 -14.6781 10.1787 -23.4023 -14.9154 10.1994 -25.1956 -13.6 10.1864 -26.2345 -16.2547 10.2083 -24.1411
 -14.7088 -5.15473 35.4765 -14.6842 -3.51358 35.4338 -15.4955 -4.95067 36.839 -15.4709 -3.30953 36.7964 -14.6596 -1.87244 35.3911 -16.2822 -4.74662 38.2016
 -17.3635 9.86177 -26.8517 -16.2493 9.75097 -28.0958 -18.0726 9.42654 -28.4792 -16.9637 9.26473 -29.7182 -15.1379 9.62521 -29.3406 -18.7662 8.81736 -30.0763
 -12.8031 -0.0339412 26.0215 -13.8208 -0.458665 27.2233 -14.4345 -0.076471 25.3268 -15.4374 -0.538784 26.5298 -14.7785 -1.15612 28.3286 -16.0526 -0.124079 24.6408
 35.8759 -6.63412 1.58154 35.4612 -5.30587 0.104269 35.9235 -6.84907 -0.162755 35.5413 -5.51352 -1.64245 34.8439 -4.07741 -1.36573 35.9661 -7.06312 -1.92297
 46.2114 -7.09556 -2.03802 46.2032 -6.813 -0.288609 46.1738 -8.46467 -1.02554 46.1929 -8.15892 0.688067 46.1895 -6.53273 1.43316 46 -9.99999 -0.0449491
 32.9781 9.62534 1.35567 32.4533 9.75164 -0.220054 31.2071 9.99319 1.32326 30.6974 10.0687 -0.251586 31.9305 9.86285 -1.81346 29.4997 10.1876 1.29089
 36.6789 4.85227 5 35.2932 3.31554 5 37.132 3.41235 5 35.7462 1.87563 5 33.9074 1.77882 5 37.585 1.97244 5
 -20.5863 -1.55224 -25.6565 -18.335 -1.11217 -26.1914 -20.0008 -0.835778 -24.6424 -20.7075 0.473321 -25.8664 -21.2613 -0.330568 -26.8256 -18.8937 -1.90757 -27.1591 -21.4142 1.78242 -27.0905 -16.9113 -1.42546 -27.5743 -21.1083 -2.44356 -26.5607
 -19.7813 -1.13802 40.5869 -21.5156 -1.97862 39.9185 -20.2456 -2.74445 40.9106 -21.0355 -0.399239 39.5229 -21.9202 -3.59903 40.1874 -18.3248 -1.88936 41.7395
 29.0273 -0.0513277 -1.81534 29.2206 -0.0913666 -0.0598462 27.5803 0.11886 -0.918921 27.7651 0.111388 0.812525 29.4145 -0.13554 1.68979 26 0 -0.0452634
 -17.9608 -10 31.1995 -18.7594 -8.23492 30.8671 -17.2636 -8.41972 31.7393 -17.9025 -6.77937 31.1277 -19.3956 -6.5855 30.2146 -16.4022 -6.97265 32.0401
 -20.7581 1.38933 -38.65 -22.2064 1.61096 -37.6634 -20.4802 2.72222 -37.823 -21.9154 2.93076 -36.821 -23.6873 1.83048 -36.6542 -20.142 3.9739 -36.8936
 -16.0848 -0.0513791 -24.2316 -14.6576 -0.0930185 -25.2873 -14.5855 0.118856 -23.4262 -13.1745 0.111007 -24.4622 -13.2349 -0.139112 -26.341 -13.0392 0 -22.494
 -23.0996 1.38956 37.298 -21.5175 1.61108 38.061 -22.5352 2.7172 36.6406 -20.9464 2.92568 37.3848 -19.8998 1.83048 38.8408 -21.9127 3.96429 35.8807
 35.1642 -4.65864 -5 35.6526 -5.83275 -3.37171 35.0113 -4.36393 -3.06355 35.5413 -5.51352 -1.64245 35.9661 -7.06312 -1.92297 34.8439 -4.07741 -1.36573
 -14.7785 -1.15612 28.3286 -13.8208 -0.458665 27.2233 -13.1649 -0.988675 28.9294 -12.1636 -0.34744 27.8114 -12.8031 -0.0339412 26.0215 -11.3405 -0.835778 29.6424
 -11.1792 0 15.3977 -11.9988 0 17.0193 -12.7755 0 15.1452 -13.5952 0 16.7669 -12.8185 0 18.641 -14.3719 0 14.8928
 -4.9924 2.75351 18.6471 -5.94654 2.97549 20.2997 -5.352 1.37676 19.2699 -6.30615 1.59873 20.9226 -6.90069 3.19746 21.9523 -5.71161 0 19.8928
 -13.6526 2.75351 -13.6471 -14.6068 2.97549 -15.2997 -14.0123 1.37676 -14.2699 -14.9664 1.59873 -15.9226 -15.5609 3.19746 -16.9523 -14.3719 0 -14.8928
 18.645 2.75351 -5 20.5533 2.97549 -5 19.3643 1.37676 -5 21.2725 1.59873 -5 22.4616 3.19746 -5 20.0835 0 -5
 -21.9122 -4.65864 -27.9531 -20.7253 -5.82943 -29.201 -20.1502 -4.37176 -28.7989 -19.166 -5.5188 -29.9764 -19.6108 -7.05644 -30.2063 -18.5899 -4.0927 -29.5121
 -24.4148 -6.45261 39.2335 -25.833 -6.85903 38.4382 -24.8519 -8.11564 38.9933 -26.2962 -8.56003 38.1266 -27.4268 -7.27148 37.5047 -25.199 -9.99999 38.5676
 -21.7698 -6.45261 -40.7606 -20.372 -6.85903 -41.5911 -21.3432 -8.11564 -41.019 -19.8705 -8.56003 -41.8365 -18.7666 -7.27148 -42.5047 -20.801 -9.99999 -41.1067
 -24.7863 -7.01421 -39.0479 -23.2712 -6.73241 -39.9113 -23.9367 -8.42037 -39.5007 -22.4621 -8.11564 -40.3731 -21.7698 -6.45261 -40.7606 -23.0389 -9.99999 -39.8147
 -21.4234 -7.01421 40.9895 -22.9287 -6.73241 40.1091 -22.2403 -8.42037 40.4801 -23.7331 -8.11564 39.6392 -24.4148 -6.45261 39.2335 -22.9611 -9.99999 39.8596
 19.6898 10 -1.43168 21.3968 10 -1.73158 20.2662 10 -3.21584 21.9732 10 -3.51574 23.1038 10 -2.03148 20.8426 10 -5
 -11.0848 10 -16.336 -12.198 10 -17.6644 -12.9181 10 -15.9431 -14.0313 10 -17.2715 -13.3112 10 -18.9927 -14.7514 10 -15.5502
 -8.60502 10 17.7677 -9.1988 10 19.396 -7.34808 10 19.1589 -7.94187 10 20.7872 -9.79259 10 21.0242 -6.09115 10 20.5502
 -25.2586 -1.13802 -37.4246 -23.8126 -1.97862 -38.5923 -25.3068 -2.74445 -37.9885 -23.71 -0.399239 -37.9788 -23.8432 -3.59903 -39.0772 -26.985 -1.88936 -36.7395
 -16.9328 10.1667 21.9088 -17.1757 10.2058 23.705 -15.5785 10.1938 23.1741 -18.6944 10.1935 22.3796 -15.8678 10.1876 24.9021 -15.199 10 21.2471
 -21.4234 -7.01421 40.9895 -21.7184 -5.33391 40.6612 -22.9287 -6.73241 40.1091 -23.1921 -5.04987 39.7643 -21.9202 -3.59903 40.1874 -24.4148 -6.45261 39.2335
 -24.7863 -7.01421 -39.0479 -24.3545 -5.33391 -39.1393 -23.2712 -6.73241 -39.9113 -22.8409 -5.04987 -39.9671 -23.8432 -3.59903 -39.0772 -21.7698 -6.45261 -40.7606
 46.1895 -6.53273 1.43316 46.2063 -6.89945 3.10089 46.1929 -8.15892 1.97753 46.1667 -8.56003 3.70986 46.1935 -7.27148 5 46 -9.99999 2.53915
 -10.8019 0 -23.7857 -8.9951 0 -23.1181 -10.3432 0 -22.015 -8.53636 0 -21.3474 -7.1883 0 -22.4505 -9.88442 0 -20.2443
 26 0 2.53815 24.5184 0 3.76908 24.2371 0 2.05006 22.7555 0 3.28098 23.0368 0 5 22.4742 0 1.56197
 -19.9669 5.14832 -24.5837 -20.6906 3.46537 -25.8371 -19.8566 3.55583 -24.3927 -20.5803 1.87288 -25.646 -21.4142 1.78242 -27.0905 -19.7463 1.96334 -24.2016
 41.145 -4.73259 5 39.4632 -3.28475 5 39.551 -4.95361 5 37.8692 -3.50576 5 37.7813 -1.83691 5 37.957 -5.17462 5
 46.1895 -6.53273 1.43316 46.073 -5.33505 -0.114974 45.9997 -4.83347 1.56484 45.7609 -3.58767 0.0121176 45.8694 -4.1026 -1.672 45.6377 -3.07068 1.69733
 -9.46806 0 18.2371 -8.57425 0 17.2176 -7.58983 0 19.065 -6.69602 0 18.0455 -7.68044 0 16.1981 -5.71161 0 19.8928
 -12.9608 0 22.5393 -12.8896 0 20.5902 -11.4557 0 21.7977 -11.3845 0 19.8485 -12.8185 0 18.641 -9.95061 0 21.0561
 31.3413 -0.835778 -5 31.8716 -1.12523 -2.78378 30.2122 -0.362267 -3.3123 30.7873 -0.576868 -1.33307 29.0273 -0.0513277 -1.81534 32.3773 -1.45452 -0.860154
 -20.0008 -0.835778 -24.6424 -18.335 -1.11217 -26.1914 -17.9741 -0.36231 -24.5088 -16.5351 -0.567088 -25.9763 -16.0848 -0.0513791 -24.2316 -16.9113 -1.42546 -27.5743
 -14.6684 3.71471 15.4064 -15.2585 1.85736 16.4285 -15.3961 3.70772 16.6667 -15.9861 1.85037 17.6888 -15.8485 0 17.4505 -16.1237 3.70073 17.9271
 -6.00815 3.71471 -20.4064 -6.59822 1.85736 -21.4285 -6.7358 3.70772 -21.6667 -7.32587 1.85037 -22.6888 -7.1883 0 -22.4505 -7.46345 3.70073 -22.9271
 20.6765 3.71471 5 21.8567 1.85736 5 22.1318 3.70772 5 23.312 1.85037 5 23.0368 0 5 23.5871 3.70073 5
 -14.3719 0 -14.8928 -13.8158 0 -17.0192 -12.8174 0 -16.0413 -12.2613 0 -18.1676 -13.2598 0 -19.1455 -11.2628 0 -17.1898
 20.0835 0 -5 21.6469 0 -3.45528 20.3008 0 -3.07951 21.8643 0 -1.53479 23.2104 0 -1.91055 20.5182 0 -1.15902
 32.2125 9.80466 3.05798 31.2071 9.99319 1.32326 30.4659 10.0984 3.0221 32.9781 9.62534 1.35567 29.4997 10.1876 1.29089 31.454 9.96153 5
 23.1038 10 -2.03148 22.9122 10 -0.132328 24.5519 10 -1.03821 24.3603 10 0.860938 22.7206 10 1.76683 26 10 -0.0449491
 -9.79259 10 21.0242 -11.3415 10 19.9087 -11.3768 10 21.7817 -12.9258 10 20.6662 -12.8904 10 18.7932 -12.9611 10 22.5391
 -13.3112 10 -18.9927 -11.5707 10 -19.7764 -13.1751 10 -20.7435 -11.4346 10 -21.5271 -9.8302 10 -20.5601 -13.0389 10 -22.4942
 31.3594 4.54481 5 32.6334 3.16181 5 32.746 5.25876 5 34.02 3.87576 5 33.9074 1.77882 5 34.1326 5.9727 5
 -11.3112 5.1475 29.5917 -12.0463 3.46249 30.8648 -11.1986 3.55542 29.3966 -11.9337 1.87041 30.6698 -12.7814 1.77747 32.138 -11.0861 1.96334 29.2016
 37.957 -5.17389 -5 37.8657 -3.47594 -5 39.5504 -4.94821 -5 39.4591 -3.25025 -5 37.7744 -1.77798 -5 41.1438 -4.72253 -5
 -15.3362 -3.4887 -30.9244 -16.9832 -3.78643 -30.214 -16.0188 -4.97393 -31.5348 -17.619 -5.31187 -30.7776 -18.5899 -4.0927 -29.5121 -16.5404 -6.62905 -31.8749
 34.1326 5.9727 5 34.02 3.87576 5 35.4058 5.41248 5 35.2932 3.31554 5 33.9074 1.77882 5 36.6789 4.85227 5
 -12.0995 5.26222 -30.957 -12.7727 3.77474 -32.1229 -12.7673 5.91251 -32.1135 -12.105 3.12445 -30.9664 -12.7781 1.63697 -32.1323 -11.4318 4.61192 -29.8005
 -10.801 10 -23.7862 -10.5072 10.1667 -25.6186 -12.264 10.1944 -25.1003 -11.9231 10.2054 -26.7492 -10.0341 10.1935 -27.3796 -13.6 10.1864 -26.2345
 -12.8937 -3.48764 32.3326 -14.6272 -3.01323 30.9026 -12.4481 -2.44356 31.5607 -13.5538 -2.158 33.4759 -13.9558 -3.26554 34.1721 -15.0266 -4.12835 31.5943 -14.6596 -1.87244 35.3911 -16.5278 -3.62266 30.3473 -13.252 -4.65864 32.9531
 -16.0526 -0.124079 24.6408 -15.4374 -0.538784 26.5298 -17.1389 -0.679546 25.9278 -16.4468 -1.34719 27.71 -14.7785 -1.15612 28.3286 -18.1444 -1.55046 27.065
 34.4495 -3.48883 2.18104 34.6528 -3.77906 0.388317 35.3204 -4.97638 1.87885 35.4612 -5.30587 0.104269 34.8439 -4.07741 -1.36573 35.8759 -6.63412 1.58154
 -12.9334 0 12.4014 -10.9301 0 12.4443 -12.0563 0 13.8995 -10.053 0 13.9425 -8.92672 0 12.4872 -11.1792 0 15.3977
 -7.68044 0 16.1981 -9.42982 0 15.7979 -8.30358 0 14.3427 -10.053 0 13.9425 -11.1792 0 15.3977 -8.92672 0 12.4872
 26 10 2.53915 27.44 10.1667 3.70986 27.8586 10.1938 1.90434 29.1169 10.2058 3.0221 28.7285 10.1935 5 29.4997 10.1876 1.29089
 42.82 2.96332 5 43.3304 2.23236 3.23684 42.4059 3.50731 2.8687 42.9439 2.79496 1.34401 43.8013 1.47475 1.67881 41.9697 4.03479 1.01379
 -14.9503 -5.78782 32.5193 -16.5571 -5.21268 31.3439 -15.0266 -4.12835 31.5943 -16.4022 -6.97265 32.0401 -16.5278 -3.62266 30.3473 -13.252 -4.65864 32.9531
 38.9633 6.82 -5 38.4066 7.21419 -2.8534 39.6564 6.286 -3.20428 39.118 6.70693 -1.30101 37.8339 7.58494 -0.986121 40.3227 5.71687 -1.61994
 18.4708 0 1.51048 16.8742 0 0.0116636 18.3921 0 -0.35143 16.7955 0 -1.85024 15.2776 0 -1.48715 18.3134 0 -2.21334
 -8.92672 0 -12.4872 -10.0001 0 -13.6202 -8.42701 0 -14.6193 -9.50041 0 -15.7523 -11.0735 0 -14.7532 -7.9273 0 -16.7514
 45.9615 -4.54596 5 46.1004 -5.55046 3.10089 45.8098 -3.81179 3.24708 45.9997 -4.83347 1.56484 46.1895 -6.53273 1.43316 45.6377 -3.07068 1.69733
 -14.1056 7.52448 14.4317 -14.387 5.6196 14.9191 -14.9413 7.20793 15.8791 -15.2227 5.30304 16.3665 -14.6684 3.71471 15.4064 -15.777 6.89137 17.3266
 19.551 7.52448 5 20.1138 5.6196 5 21.2224 7.20793 5 21.7852 5.30304 5 20.6765 3.71471 5 22.8938 6.89137 5
 -5.44539 7.52448 -19.4317 -5.72677 5.6196 -19.9191 -6.28108 7.20793 -20.8791 -6.56245 5.30304 -21.3665 -6.00815 3.71471 -20.4064 -7.11676 6.89137 -22.3266
 -15.1515 6.82 36.2432 -16.4218 7.31516 34.6926 -17.2826 6.40646 35.6401 -18.3437 6.92825 34.231 -17.4831 7.77311 33.2336 -19.1635 5.97086 35.1625
 -16.0848 -0.0513791 -24.2316 -16.5351 -0.567088 -25.9763 -14.6576 -0.0930185 -25.2873 -15.1184 -0.648467 -27.0142 -16.9113 -1.42546 -27.5743 -13.2349 -0.139112 -26.341
 -5.71161 0 19.8928 -7.83111 0 20.4744 -7.58983 0 19.065 -9.70934 0 19.6466 -9.95061 0 21.0561 -9.46806 0 18.2371
 15.2776 0 -1.48715 16.8742 0 0.0116636 15.2563 0 0.361964 16.8529 0 1.86078 18.4708 0 1.51048 15.2349 0 2.21108
 -5.7026 0 -14.2993 -7.31466 0 -13.3933 -6.81495 0 -15.5254 -8.42701 0 -14.6193 -8.92672 0 -12.4872 -7.9273 0 -16.7514
 29.0273 -0.0513277 -1.81534 30.7873 -0.576868 -1.33307 29.2206 -0.0913666 -0.0598462 30.9706 -0.655745 0.404255 32.3773 -1.45452 -0.860154 29.4145 -0.13554 1.68979
 -19.3956 -6.5855 30.2146 -18.0222 -5.02937 30.4069 -17.9025 -6.77937 31.1277 -16.5571 -5.21268 31.3439 -16.5278 -3.62266 30.3473 -16.4022 -6.97265 32.0401
 -25.7401 2.96332 34.5832 -24.3271 2.19121 36.0196 -23.7126 3.47102 35.3089 -22.5352 2.7172 36.6406 -23.0996 1.38956 37.298 -21.9127 3.96429 35.8807
 -15.1379 9.62521 -29.3406 -14.3534 9.99149 -27.7601 -13.3599 9.80461 -29.4828 -12.5975 10.0972 -27.9174 -13.6 10.1864 -26.2345 -11.3969 9.96153 -29.74
 -16.6973 -6.07673 -38.9206 -17.4516 -4.67081 -40.227 -16.2526 -4.79566 -38.1502 -17.8964 -5.95188 -40.9974 -18.6506 -4.54596 -42.3038 -17.1421 -7.3578 -39.691
 42.4829 -1.96396 -5 40.1287 -1.87097 -5 41.4684 -0.722985 -5 39.1141 -0.629994 -5 37.7744 -1.77798 -5 40.4538 0.517992 -5
 34.8439 -4.07741 -1.36573 34.6528 -3.77906 0.388317 33.7449 -2.64132 -1.11182 33.496 -2.38707 0.637135 34.4495 -3.48883 2.18104 32.3773 -1.45452 -0.860154
 -16.5278 -3.62266 30.3473 -17.3582 -2.50398 28.7911 -15.7165 -2.25505 29.4454 -16.4468 -1.34719 27.71 -18.1444 -1.55046 27.065 -14.7785 -1.15612 28.3286
 34.9475 9.00797 -1.49535 36.4318 8.36343 -1.23949 35.8053 8.65668 -3.13532 37.2427 7.9347 -2.8534 37.8339 7.58494 -0.986121 36.6341 8.25416 -5
 -22.5891 4.45378 -29.1255 -22.0017 3.1181 -28.108 -21.969 5.46883 -28.0514 -21.3815 4.13315 -27.0339 -21.4142 1.78242 -27.0905 -21.3489 6.48388 -26.9774
 40.4538 0.517992 5 39.1175 -0.659457 5 41.4682 -0.723145 5 40.132 -1.90059 5 37.7813 -1.83691 5 42.4827 -1.96428 5
 -23.8432 -3.59903 -39.0772 -24.3545 -5.33391 -39.1393 -25.4625 -4.07464 -38.2582 -25.9927 -5.79031 -38.2568 -24.7863 -7.01421 -39.0479 -27.3109 -4.54596 -37.3038
 -21.9202 -3.59903 40.1874 -21.7184 -5.33391 40.6612 -20.4013 -4.07464 41.1803 -20.135 -5.79031 41.6388 -21.4234 -7.01421 40.9895 -18.6506 -4.54596 42.3038
 -17.0799 2.96332 -39.5832 -19.0342 2.1911 -39.0756 -18.736 3.47596 -38.1776 -20.4802 2.72222 -37.823 -20.7581 1.38933 -38.65 -20.142 3.9739 -36.8936
 42.0377 -6.02688 -5 44.4466 -5.93859 -5 42.9316 -7.33122 -5 43.5527 -4.63425 -5 45.9615 -4.54596 -5 41.1438 -4.72253 -5
 -17.3301 5.05142 -20.0167 -16.4455 4.12444 -18.4845 -16.5428 6.02669 -18.653 -15.6582 5.09971 -17.1208 -15.5609 3.19746 -16.9523 -15.7555 7.00196 -17.2893
 26 5.05142 -5 24.2308 4.12444 -5 24.4254 6.02669 -5 22.6562 5.09971 -5 22.4616 3.19746 -5 22.8507 7.00196 -5
 -8.66987 5.05142 25.0167 -7.78528 4.12444 23.4845 -7.88255 6.02669 23.653 -6.99796 5.09971 22.1208 -6.90069 3.19746 21.9523 -7.09523 7.00196 22.2893
 -21.3854 9.30984 -27.0407 -19.2819 9.61408 -26.9982 -19.9675 9.0722 -28.6259 -18.0726 9.42654 -28.4792 -18.7662 8.81736 -30.0763 -17.3635 9.86177 -26.8517
 -18.5899 -4.0927 -29.5121 -16.9832 -3.78643 -30.214 -17.8193 -2.62932 -28.6643 -16.1865 -2.36918 -29.3115 -15.3362 -3.4887 -30.9244 -16.9113 -1.42546 -27.5743
 -2 5.10595 -3.4641 -3.4641 3.74856 -2 -2 3.74856 -3.4641 -3.4641 2.39118 -2 -4 2.39118 -1.37574e-15 -2 2.39118 -3.4641
 4 5.10595 0 3.4641 3.74856 -2 4 3.74856 0 3.4641 2.39118 -2 2 2.39118 -3.4641 4 2.39118 0
 -2 2.39118 -3.4641 -4.43469e-10 2.39118 -4 -2 3.74856 -3.4641 -4.43469e-10 3.74856 -4 2 2.39118 -3.4641 -2 5.10595 -3.4641
 4 2.39118 0 3.4641 2.39118 2 4 3.74856 0 3.4641 3.74856 2 2 2.39118 3.4641 4 5.10595 0
 -2 2.39118 3.4641 -3.4641 2.39118 2 -2 3.74856 3.4641 -3.4641 3.74856 2 -4 2.39118 -1.37574e-15 -2 5.10595 3.4641
 -2 5.10595 3.4641 -4.43472e-10 3.74856 4 -2 3.74856 3.4641 -4.43472e-10 2.39118 4 2 2.39118 3.4641 -2 2.39118 3.4641
 -4 2.39118 -1.37574e-15 -3.4641 3.74856 -2 -4 3.74856 -1.37574e-15 -3.4641 5.10595 -2 -2 5.10595 -3.4641 -4 5.10595 -1.37574e-15
 2 2.39118 -3.4641 3.4641 3.74856 -2 2 3.74856 -3.4641 3.4641 5.10595 -2 4 5.10595 0 2 5.10595 -3.4641
 2 5.10595 -3.4641 -4.43469e-10 5.10595 -4 2 3.74856 -3.4641 -4.43469e-10 3.74856 -4 -2 5.10595 -3.4641 2 2.39118 -3.4641
 2 5.10595 3.4641 3.4641 5.10595 2 2 3.74856 3.4641 3.4641 3.74856 2 4 5.10595 0 2 2.39118 3.4641
 -4 5.10595 -1.37574e-15 -3.4641 5.10595 2 -4 3.74856 -1.37574e-15 -3.4641 3.74856 2 -2 5.10595 3.4641 -4 2.39118 -1.37574e-15
 2 2.39118 3.4641 -4.43472e-10 3.74856 4 2 3.74856 3.4641 -4.43472e-10 5.10595 4 -2 5.10595 3.4641 2 5.10595 3.4641
 -7.58926 10 -18.1939 -9.337 10 -17.265 -7.7901 10 -16.2548 -9.53785 10 -15.3259 -11.0848 10 -16.336 -7.99094 10 -14.3157
 19.551 10 2.52448 19.6204 10 0.5464 17.9721 10 1.381 18.0415 10 -0.597081 19.6898 10 -1.43168 16.3933 10 0.237514
 -11.9618 10 15.6695 -10.2834 10 16.7186 -10.1821 10 14.8738 -8.50367 10 15.923 -8.60502 10 17.7677 -8.40233 10 14.0782
 44.2542 0.634074 -5 43.8467 1.39671 -3.07117 44.5838 -0.0325393 -2.81048 44.2029 0.748265 -1.143 43.3953 2.13312 -1.3795 44.878 -0.718881 -0.90848
 -17.8023 -3.2717 -40.8345 -16.6033 -3.39655 -38.7577 -17.4516 -4.67081 -40.227 -16.954 -1.99743 -39.3652 -16.2526 -4.79566 -38.1502 -18.6506 -4.54596 -42.3038
 22.7206 10 1.76683 21.2052 10 0.167575 21.1358 10 2.14565 19.6204 10 0.5464 19.6898 10 -1.43168 19.551 10 2.52448
 -12.8904 10 18.7932 -10.7477 10 18.2805 -12.4261 10 17.2313 -10.2834 10 16.7186 -8.60502 10 17.7677 -11.9618 10 15.6695
 -9.8302 10 -20.5601 -10.4575 10 -18.448 -8.70973 10 -19.377 -9.337 10 -17.265 -11.0848 10 -16.336 -7.58926 10 -18.1939
 -26.4599 -3.27796 35.8299 -25.2604 -3.40407 33.7524 -26.1114 -4.67207 35.2263 -25.6089 -2.00996 34.3559 -24.912 -4.79818 33.1488 -27.3109 -4.54596 37.3038
 -17.6631 9.62534 27.882 -16.7495 9.99319 26.3645 -18.7545 9.80466 26.3679 -17.8501 10.0984 24.8732 -15.8678 10.1876 24.9021 -20.0571 9.96153 24.74
 23.1038 10 -2.03148 21.3968 10 -1.73158 22.9122 10 -0.132328 21.2052 10 0.167575 19.6898 10 -1.43168 22.7206 10 1.76683
 -13.3112 10 -18.9927 -12.198 10 -17.6644 -11.5707 10 -19.7764 -10.4575 10 -18.448 -11.0848 10 -16.336 -9.8302 10 -20.5601
 -9.79259 10 21.0242 -9.1988 10 19.396 -11.3415 10 19.9087 -10.7477 10 18.2805 -8.60502 10 17.7677 -12.8904 10 18.7932
 -16.9797 -2.01618 39.4097 -15.8196 -1.94431 37.4004 -16.5731 -0.669057 38.7055 -15.4131 -0.597187 36.6962 -14.6596 -1.87244 35.3911 -16.1666 0.678063 38.0013
 -21.0106 -10 -34.1357 -19.7884 -10 -31.9552 -21.5855 -10 -32.7466 -19.2551 -10 -33.3224 -18.0392 -10 -31.1543 -20.4776 -10 -35.5019
 -20.9829 -10 34.1517 -19.197 -10 33.356 -20.4397 -10 35.5237 -19.74 -10 31.9832 -17.9608 -10 31.1995 -21.5677 -10 32.7569
 39.1522 -10 2.29975 37.5682 -10 1.10372 40.0677 -10 1.09591 38.4856 -10 -0.0529242 36 -10 -0.0452634 40.9843 -10 -0.0605847
 2 8.049 -3.4641 3.4641 6.57747 -2 3.4641 8.049 -2 4 6.57747 0 4 5.10595 0 4 8.049 0
 -2 8.049 -3.4641 -2 6.57747 -3.4641 -4.43469e-10 8.049 -4 -4.43469e-10 6.57747 -4 -2 5.10595 -3.4641 2 8.049 -3.4641
 -4 8.049 -1.37574e-15 -3.4641 6.57747 -2 -3.4641 8.049 -2 -2 6.57747 -3.4641 -2 5.10595 -3.4641 -2 8.049 -3.4641
 4 8.049 0 3.4641 6.57747 2 3.4641 8.049 2 2 6.57747 3.4641 2 5.10595 3.4641 2 8.049 3.4641
 -2 8.049 3.4641 -2 6.57747 3.4641 -3.4641 8.049 2 -3.4641 6.57747 2 -2 5.10595 3.4641 -4 8.049 -1.37574e-15
 2 8.049 3.4641 -4.43472e-10 6.57747 4 -4.43472e-10 8.049 4 -2 6.57747 3.4641 -2 5.10595 3.4641 -2 8.049 3.4641
 2 5.10595 -3.4641 3.4641 5.10595 -2 2 6.57747 -3.4641 3.4641 6.57747 -2 4 5.10595 0 2 8.049 -3.4641
 2 8.049 -3.4641 -4.43469e-10 6.57747 -4 2 6.57747 -3.4641 -4.43469e-10 5.10595 -4 -2 5.10595 -3.4641 2 5.10595 -3.4641
 -4 5.10595 -1.37574e-15 -3.4641 5.10595 -2 -4 6.57747 -1.37574e-15 -3.4641 6.57747 -2 -2 5.10595 -3.4641 -4 8.049 -1.37574e-15
 4 5.10595 0 3.4641 5.10595 2 4 6.57747 0 3.4641 6.57747 2 2 5.10595 3.4641 4 8.049 0
 -4 8.049 -1.37574e-15 -3.4641 6.57747 2 -4 6.57747 -1.37574e-15 -3.4641 5.10595 2 -2 5.10595 3.4641 -4 5.10595 -1.37574e-15
 2 5.10595 3.4641 -4.43472e-10 5.10595 4 2 6.57747 3.4641 -4.43472e-10 6.57747 4 -2 5.10595 3.4641 2 8.049 3.4641
 44.878 -0.718881 -0.90848 45.4549 -2.3968 -1.28734 45.0997 -1.30141 -2.81048 45.6191 -2.99736 -3.23308 45.8694 -4.1026 -1.672 45.3098 -1.88936 -5
 -20.4397 -10 35.5237 -19.197 -10 33.356 -18.9753 -10 35.3108 -17.7324 -10 33.1423 -17.9608 -10 31.1995 -17.4656 -10 35.1252
 40.9843 -10 -0.0605847 38.4856 -10 -0.0529242 40.0677 -10 -1.22228 37.5682 -10 -1.21444 36 -10 -0.0452634 39.1522 -10 -2.43695
 -16.2822 -4.74662 38.2016 -17.4664 -4.64629 40.2527 -16.7089 -6.03892 38.9407 -17.8932 -5.93859 40.9919 -18.6506 -4.54596 42.3038 -17.1357 -7.33122 39.6799
 -23.4363 -10 -35.8715 -23.2211 -10 -37.8632 -21.9357 -10 -35.7 -21.7614 -10 -37.6637 -23.0389 -9.99999 -39.8147 -20.4776 -10 -35.5019
 36.6254 4.86047 -5 35.2662 3.33218 -5 35.3079 5.70983 -5 33.9487 4.18155 -5 33.907 1.8039 -5 33.9905 6.5592 -5
 -24.76 0.625081 32.8857 -23.9952 -0.734705 31.561 -25.1845 -0.692438 33.6208 -24.4197 -2.05222 32.2961 -23.2304 -2.09449 30.2363 -25.6089 -2.00996 34.3559
 -25.6089 -2.00996 -34.3559 -24.4197 -2.05222 -32.2961 -25.1845 -0.692438 -33.6208 -23.9952 -0.734706 -31.561 -23.2304 -2.09449 -30.2363 -24.76 0.625081 -32.8857
 -13.5091 -2.26902 -33.3985 -13.6741 -0.22876 -33.6843 -12.6131 -0.403291 -31.8465 -14.5702 -2.09449 -35.2363 -12.7781 1.63697 -32.1323 -12.4481 -2.44356 -31.5607
 -18.6506 -4.54596 42.3038 -17.4664 -4.64629 40.2527 -17.8152 -3.28107 40.8568 -16.6309 -3.3814 38.8057 -16.2822 -4.74662 38.2016 -16.9797 -2.01618 39.4097
 -17.4836 -10 -35.1149 -17.7809 -10 -33.1143 -19.0031 -10 -35.2948 -19.2551 -10 -33.3224 -18.0392 -10 -31.1543 -20.4776 -10 -35.5019
 40.9843 -10 -0.0605847 43.4984 -10 -0.0527671 41.8849 -10 1.10959 44.401 -10 1.11756 46 -9.99999 -0.0449491 42.7838 -10 2.32883
 -20.4397 -10 35.5237 -21.7035 -10 37.6971 -21.9034 -10 35.7186 -23.1683 -10 37.8936 -22.9611 -9.99999 39.8596 -23.4087 -10 35.8874
 42.8006 -10 -2.44157 44.4091 -10 -1.21644 41.8933 -10 -1.22445 43.4984 -10 -0.0527671 46 -9.99999 -0.0449491 40.9843 -10 -0.0605847
 -19.2858 -10 38.2872 -21.1511 -10 39.0676 -19.8862 -10 36.8929 -21.7035 -10 37.6971 -22.9611 -9.99999 39.8596 -20.4397 -10 35.5237
 18.4708 0 1.51048 20.4725 0 1.53622 19.2771 0 3.25524 21.2789 0 3.28098 22.4742 0 1.56197 20.0835 0 5
 -7.9273 0 -16.7514 -8.90586 0 -18.4978 -6.81945 0 -18.3221 -7.79801 0 -20.0685 -9.88442 0 -20.2443 -5.71161 0 -19.8928
 -16.2822 -4.74662 38.2016 -15.4709 -3.30953 36.7964 -16.6309 -3.3814 38.8057 -15.8196 -1.94431 37.4004 -14.6596 -1.87244 35.3911 -16.9797 -2.01618 39.4097
 28.645 6.94977 -5 30.0495 8.45565 -5 29.9284 6.05753 -5 31.3329 7.56341 -5 31.454 9.96153 -5 31.2118 5.1653 -5
 -25.8024 -7.35893 34.691 -26.5566 -5.95245 35.9974 -25.3572 -6.07856 33.9199 -26.1114 -4.67207 35.2263 -27.3109 -4.54596 37.3038 -24.912 -4.79818 33.1488
 -24.912 -4.79818 -33.1488 -26.1114 -4.67207 -35.2263 -25.3572 -6.07856 -33.9199 -26.5566 -5.95245 -35.9974 -27.3109 -4.54596 -37.3038 -25.8024 -7.35893 -34.691
 -20.4776 -10 -35.5019 -21.7614 -10 -37.6637 -19.9154 -10 -36.876 -21.2006 -10 -39.039 -23.0389 -9.99999 -39.8147 -19.3066 -10 -38.2752
 35.6689 -2.14023 5 35.8444 -0.0290444 5 33.7319 -0.33237 5 37.7813 -1.83691 5 33.9074 1.77882 5 33.5564 -2.44356 5
 -18.667 6.94064 -22.3323 -19.3621 8.45108 -23.5361 -19.317 6.04448 -23.458 -20.012 7.55493 -24.6619 -20.0571 9.96153 -24.74 -19.9669 5.14832 -24.5837
 -10.0068 6.94064 27.3323 -10.7018 8.45108 28.5361 -10.659 6.04407 28.462 -11.3541 7.55451 29.6658 -11.3969 9.96153 29.74 -11.3112 5.1475 29.5917
 42.9316 -7.33122 5 44.4466 -5.93859 5 42.0383 -6.03191 5 43.5533 -4.63928 5 45.9615 -4.54596 5 41.145 -4.73259 5
 -14.6587 -0.143873 35.3897 -13.7205 -0.0474808 33.7646 -13.7196 1.68108 33.7631 -14.6596 -1.87244 35.3911 -12.7814 1.77747 32.138 -14.6579 1.58469 35.3882
 -16.1288 0.706837 -37.9359 -15.3495 -0.693828 -36.5861 -16.5414 -0.645296 -38.6505 -15.7621 -2.04596 -37.3007 -14.5702 -2.09449 -35.2363 -16.954 -1.99743 -39.3652
 33.9905 6.5592 -5 32.6012 5.86225 -5 32.7223 8.26036 -5 31.3329 7.56341 -5 31.2118 5.1653 -5 31.454 9.96153 -5
 -27.3109 -4.54596 -37.3038 -26.1114 -4.67207 -35.2263 -26.4599 -3.27796 -35.8299 -25.2605 -3.40407 -33.7524 -24.912 -4.79818 -33.1488 -25.6089 -2.00996 -34.3559
 33.9905 6.5592 -5 33.9487 4.18155 -5 32.6012 5.86225 -5 32.5594 3.4846 -5 33.907 1.8039 -5 31.2118 5.1653 -5
 37.8654 0.156377 -5 35.8407 0.0129583 -5 35.9317 1.94731 -5 37.7744 -1.77798 -5 33.907 1.8039 -5 37.9564 2.09073 -5
 -25.6089 -2.00996 34.3559 -24.4197 -2.05222 32.2961 -25.2604 -3.40407 33.7524 -24.0712 -3.44634 31.6926 -23.2304 -2.09449 30.2363 -24.912 -4.79818 33.1488
 -24.912 -4.79818 -33.1488 -24.0712 -3.44634 -31.6926 -25.2605 -3.40407 -33.7524 -24.4197 -2.05222 -32.2961 -23.2304 -2.09449 -30.2363 -25.6089 -2.00996 -34.3559
 -12.6884 6.48405 31.977 -11.9998 5.81577 30.7843 -12.0427 8.22279 30.8585 -11.3541 7.55451 29.6658 -11.3112 5.1475 29.5917 -11.3969 9.96153 29.74
 -21.3489 6.48388 -26.9774 -21.3815 4.13315 -27.0339 -20.6579 5.8161 -25.7806 -20.6906 3.46537 -25.8371 -21.4142 1.78242 -27.0905 -19.9669 5.14832 -24.5837
 -16.954 -1.99743 -39.3652 -15.7621 -2.04596 -37.3007 -16.6033 -3.39655 -38.7577 -15.4114 -3.44508 -36.6933 -14.5702 -2.09449 -35.2363 -16.2526 -4.79566 -38.1502
 42.4827 -1.96428 5 40.132 -1.90059 5 41.8138 -3.34844 5 39.4632 -3.28475 5 37.7813 -1.83691 5 41.145 -4.73259 5
 -21.3489 6.48388 -26.9774 -20.6579 5.8161 -25.7806 -20.703 8.2227 -25.8587 -20.012 7.55493 -24.6619 -19.9669 5.14832 -24.5837 -20.0571 9.96153 -24.74
 45.9615 -4.54596 -5 43.5527 -4.63425 -5 44.2222 -3.25496 -5 41.8134 -3.34324 -5 41.1438 -4.72253 -5 42.4829 -1.96396 -5
 42.4827 -1.96428 5 41.8138 -3.34844 5 44.2221 -3.25512 5 43.5533 -4.63928 5 41.145 -4.73259 5 45.9615 -4.54596 5
 34.8439 -4.07741 -1.36573 33.7449 -2.64132 -1.11182 34.2486 -3.22464 -3.06355 32.9868 -1.92393 -2.78378 32.3773 -1.45452 -0.860154 33.5564 -2.44356 -5
 -12.4481 -2.44356 31.5607 -14.6272 -3.01323 30.9026 -13.7346 -1.75143 29.9161 -15.7165 -2.25505 29.4454 -16.5278 -3.62266 30.3473 -14.7785 -1.15612 28.3286
 -12.6884 6.48405 31.977 -12.7349 4.13076 32.0575 -11.9998 5.81577 30.7843 -12.0463 3.46249 30.8648 -12.7814 1.77747 32.138 -11.3112 5.1475 29.5917
 41.1438 -4.72253 -5 39.4591 -3.25025 -5 41.8134 -3.34324 -5 40.1287 -1.87097 -5 37.7744 -1.77798 -5 42.4829 -1.96396 -5
 -18.5899 -4.0927 -29.5121 -17.8193 -2.62932 -28.6643 -19.7694 -3.23168 -28.1394 -18.8937 -1.90757 -27.1591 -16.9113 -1.42546 -27.5743 -21.1083 -2.44356 -26.5607
 -23.2743 -0.254901 -30.3123 -22.3662 1.68356 -28.7394 -23.3182 1.58469 -30.3882 -22.3223 -0.156036 -28.6634 -21.4142 1.78242 -27.0905 -23.2304 -2.09449 -30.2363
 -13.718 1.61083 -33.7603 -14.614 -0.254901 -35.3123 -14.6579 1.58469 -35.3882 -13.6741 -0.22876 -33.6843 -14.5702 -2.09449 -35.2363 -12.7781 1.63697 -32.1323
 37.585 1.97244 5 35.7462 1.87563 5 37.6832 0.0677654 5 35.8444 -0.0290444 5 33.9074 1.77882 5 37.7813 -1.83691 5
 -21.2613 -0.330568 -26.8256 -22.3223 -0.156036 -28.6634 -22.1694 -2.26902 -28.3985 -21.4142 1.78242 -27.0905 -23.2304 -2.09449 -30.2363 -21.1083 -2.44356 -26.5607
 -22.9536 3.01924 29.7569 -22.3783 1.61083 28.7603 -23.3182 1.58469 30.3882 -22.0137 3.04538 28.1289 -21.4384 1.63697 27.1323 -22.5891 4.45378 29.1255
 -21.4275 5.91251 27.1135 -22.0083 5.18315 28.1195 -22.0373 7.08333 28.1698 -22.6181 6.35397 29.1758 -22.5891 4.45378 29.1255 -22.6472 8.25416 29.226
 -22.6472 8.25416 29.226 -21.4962 7.80116 30.8615 -20.7825 8.45276 29.8569 -19.8327 8.01441 31.3888 -20.5158 7.29608 32.3622 -19.1193 8.63512 30.3618
 -20.9185 6.50274 26.2318 -20.8974 8.20141 26.1954 -20.4094 7.09297 25.3502 -21.4065 7.61118 27.0771 -21.3854 9.30984 27.0407 -21.4275 5.91251 27.1135
 -17.6631 9.62534 27.882 -16.0361 9.75164 28.2154 -16.7495 9.99319 26.3645 -15.1308 10.0687 26.7106 -14.3948 9.86285 28.5594 -15.8678 10.1876 24.9021
 -23.3182 1.58469 30.3882 -23.2743 -0.2549 30.3123 -24.0391 1.10489 31.6369 -23.9952 -0.734705 31.561 -23.2304 -2.09449 30.2363 -24.76 0.625081 32.8857
 -21.4275 5.91251 27.1135 -21.4329 3.77474 27.1229 -22.0083 5.18315 28.1195 -22.0137 3.04538 28.1289 -21.4384 1.63697 27.1323 -22.5891 4.45378 29.1255
 -22.0266 8.83113 28.1512 -22.0373 7.08333 28.1698 -22.6472 8.25416 29.226 -20.7825 8.45276 29.8569 -20.1545 8.99108 28.7692 -21.4065 7.61118 27.0771 -19.1193 8.63512 30.3618 -21.4275 5.91251 27.1135 -21.3854 9.30984 27.0407
 -17.6631 9.62534 27.882 -19.4202 9.47208 27.5208 -18.4027 9.19084 29.1419 -20.1545 8.99108 28.7692 -21.3854 9.30984 27.0407 -19.1193 8.63512 30.3618
 -20.7598 5.26222 25.957 -21.4329 3.77474 27.1229 -21.4275 5.91251 27.1135 -20.7652 3.12445 25.9664 -21.4384 1.63697 27.1323 -20.0921 4.61192 24.8005
 -13.9289 4.45378 34.1255 -13.3551 3.11563 33.1318 -13.3086 5.46891 33.0512 -12.7349 4.13076 32.0575 -12.7814 1.77747 32.138 -12.6884 6.48405 31.977
 -18.9993 7.53956 32.8017 -19.8327 8.01441 31.3888 -20.5158 7.29608 32.3622 -18.3096 8.22675 31.8091 -19.1193 8.63512 30.3618 -17.4831 7.77311 33.2336
 -22.1694 -2.26902 28.3985 -22.3344 -0.228759 28.6843 -21.2734 -0.403291 26.8465 -23.2304 -2.09449 30.2363 -21.4384 1.63697 27.1323 -21.1083 -2.44356 26.5607
 -19.7404 1.90671 24.1914 -20.5894 1.77184 25.6619 -19.9162 3.25932 24.4959 -20.7652 3.12445 25.9664 -21.4384 1.63697 27.1323 -20.0921 4.61192 24.8005
 -14.3948 9.86285 28.5594 -16.0361 9.75164 28.2154 -15.1897 9.4996 29.8515 -16.8293 9.34442 29.5086 -17.6631 9.62534 27.882 -15.9762 9.00825 31.1292
 -18.5366 3.70073 22.1063 -19.3143 4.15633 23.4534 -18.7248 5.27636 22.4324 -19.5026 5.73195 23.7795 -20.0921 4.61192 24.8005 -18.9131 6.85198 22.7585
 -15.9762 9.00825 31.1292 -17.5553 8.82804 30.7455 -16.7461 8.44368 32.2091 -18.3096 8.22675 31.8091 -19.1193 8.63512 30.3618 -17.4831 7.77311 33.2336
 -19.7404 1.90671 24.1914 -19.9162 3.25932 24.4959 -19.1385 2.80372 23.1488 -19.3143 4.15633 23.4534 -20.0921 4.61192 24.8005 -18.5366 3.70073 22.1063
 -23.2743 -0.2549 30.3123 -22.3344 -0.228759 28.6843 -23.2304 -2.09449 30.2363 -22.3783 1.61083 28.7603 -21.4384 1.63697 27.1323 -23.3182 1.58469 30.3882
 37.7744 -1.77798 -5 35.6654 -2.11077 -5 35.8407 0.0129583 -5 33.7317 -0.31983 -5 33.907 1.8039 -5 33.5564 -2.44356 -5
 -12.7814 1.77747 32.138 -13.7205 -0.0474808 33.7646 -12.6147 -0.33304 31.8494 -13.5538 -2.158 33.4759 -14.6596 -1.87244 35.3911 -12.4481 -2.44356 31.5607

CELLS 6840 27360
 3 0 1 2
 3 2 3 0
 3 0 3 4
 3 1 0 5
 3 3 6 4
 3 5 7 1
 3 8 5 0
 3 0 4 8
 3 9 10 11
 3 11 12 9
 3 9 12 13
 3 10 9 14
 3 12 15 13
 3 14 16 10
 3 17 14 9
 3 9 13 17
 3 18 19 20
 3 20 21 18
 3 18 21 22
 3 19 18 23
 3 21 24 22
 3 23 25 19
 3 26 23 18
 3 18 22 26
 3 27 28 29
 3 29 30 27
 3 27 30 31
 3 28 27 32
 3 30 33 31
 3 32 34 28
 3 35 32 27
 3 27 31 35
 3 36 37 38
 3 38 39 36
 3 36 39 40
 3 37 36 41
 3 39 42 40
 3 41 43 37
 3 44 41 36
 3 36 40 44
 3 45 46 47
 3 47 48 45
 3 45 48 49
 3 46 45 50
 3 48 51 49
 3 50 52 46
 3 53 50 45
 3 45 49 53
 3 54 55 56
 3 56 55 57
 3 57 58 59
 3 55 60 57
 3 57 60 58
 3 59 58 61
 3 56 57 62
 3 62 57 59
 3 63 64 65
 3 65 64 66
 3 66 67 68
 3 64 69 66
 3 66 69 67
 3 68 67 70
 3 65 66 71
 3 71 66 68
 3 72 73 74
 3 74 73 75
 3 75 76 77
 3 73 78 75
 3 75 78 76
 3 77 76 79
 3 74 75 80
 3 80 75 77
 3 81 82 83
 3 81 83 84
 3 84 83 85
 3 83 82 86
 3 83 86 87
 3 83 87 85
 3 82 88 86
 3 84 85 89
 3 90 91 92
 3 90 92 93
 3 93 92 94
 3 92 91 95
 3 92 95 96
 3 92 96 94
 3 91 97 95
 3 93 94 98
 3 99 100 101
 3 99 101 102
 3 102 101 103
 3 101 100 104
 3 101 104 105
 3 101 105 103
 3 100 106 104
 3 102 103 107
 3 108 109 110
 3 108 111 109
 3 110 109 112
 3 113 108 110
 3 114 115 116
 3 114 117 115
 3 116 115 118
 3 119 114 116
 3 120 121 122
 3 120 123 121
 3 122 121 124
 3 125 120 122
 3 126 127 128
 3 128 127 129
 3 128 129 130
 3 127 131 129
 3 132 133 134
 3 134 133 135
 3 134 135 136
 3 133 137 135
 3 138 139 140
 3 140 139 141
 3 140 141 142
 3 139 143 141
 3 144 145 146
 3 146 145 147
 3 145 148 147
 3 146 147 149
 3 150 151 152
 3 152 151 153
 3 151 154 153
 3 152 153 155
 3 156 157 158
 3 158 157 159
 3 157 160 159
 3 158 159 161
 3 162 163 164
 3 164 163 165
 3 163 166 165
 3 164 165 167
 3 168 169 170
 3 170 169 171
 3 169 172 171
 3 170 171 173
 3 174 175 176
 3 176 175 177
 3 175 178 177
 3 176 177 179
 3 180 181 182
 3 182 181 183
 3 181 184 183
 3 182 183 185
 3 186 187 188
 3 188 187 189
 3 187 190 189
 3 188 189 191
 3 192 193 194
 3 194 193 195
 3 193 196 195
 3 194 195 197
 3 198 199 200
 3 200 199 201
 3 199 202 201
 3 200 201 203
 3 204 205 206
 3 206 205 207
 3 205 208 207
 3 206 207 209
 3 210 211 212
 3 212 211 213
 3 211 214 213
 3 212 213 215
 3 216 217 218
 3 218 217 219
 3 217 220 219
 3 218 219 221
 3 222 223 224
 3 224 223 225
 3 223 226 225
 3 224 225 227
 3 228 229 230
 3 230 229 231
 3 229 232 231
 3 230 231 233
 3 234 235 236
 3 236 235 237
 3 235 238 237
 3 236 237 239
 3 240 241 242
 3 242 241 243
 3 241 244 243
 3 242 243 245
 3 246 247 248
 3 248 247 249
 3 247 250 249
 3 248 249 251
 3 252 253 254
 3 254 253 255
 3 253 256 255
 3 254 255 257
 3 258 259 260
 3 260 259 261
 3 259 262 261
 3 260 261 263
 3 264 265 266
 3 266 265 267
 3 265 268 267
 3 266 267 269
 3 270 271 272
 3 272 271 273
 3 271 274 273
 3 272 273 275
 3 276 277 278
 3 278 277 279
 3 277 280 279
 3 278 279 281
 3 282 283 284
 3 284 283 285
 3 283 286 285
 3 284 285 287
 3 288 289 290
 3 290 289 291
 3 289 292 291
 3 290 291 293
 3 294 295 296
 3 296 295 297
 3 295 298 297
 3 296 297 299
 3 300 301 302
 3 302 301 303
 3 301 304 303
 3 302 303 305
 3 306 307 308
 3 308 307 309
 3 307 310 309
 3 308 309 311
 3 312 313 314
 3 314 313 315
 3 313 316 315
 3 314 315 317
 3 318 319 320
 3 320 319 321
 3 319 322 321
 3 320 321 323
 3 324 325 326
 3 326 325 327
 3 325 328 327
 3 326 327 329
 3 330 331 332
 3 332 333 330
 3 330 333 334
 3 331 330 335
 3 333 336 334
 3 335 337 331
 3 338 335 330
 3 330 334 338
 3 339 340 341
 3 341 342 339
 3 339 342 343
 3 340 339 344
 3 342 345 343
 3 344 346 340
 3 347 344 339
 3 339 343 347
 3 348 349 350
 3 350 351 348
 3 348 351 352
 3 349 348 353
 3 351 354 352
 3 353 355 349
 3 356 353 348
 3 348 352 356
 3 357 358 359
 3 359 358 360
 3 358 361 360
 3 359 360 362
 3 363 364 365
 3 365 364 366
 3 364 367 366
 3 365 366 368
 3 369 370 371
 3 371 372 369
 3 369 372 373
 3 370 369 374
 3 372 375 373
 3 374 376 370
 3 377 374 369
 3 369 373 377
 3 378 379 380
 3 380 381 378
 3 378 381 382
 3 379 378 383
 3 381 384 382
 3 383 385 379
 3 386 383 378
 3 378 382 386
 3 387 388 389
 3 389 390 387
 3 387 390 391
 3 388 387 392
 3 390 393 391
 3 392 394 388
 3 395 392 387
 3 387 391 395
 3 396 397 398
 3 398 399 396
 3 396 399 400
 3 397 396 401
 3 399 402 400
 3 401 403 397
 3 404 401 396
 3 396 400 404
 3 405 406 407
 3 407 408 405
 3 405 408 409
 3 406 405 410
 3 408 411 409
 3 410 412 406
 3 413 410 405
 3 405 409 413
 3 414 415 416
 3 416 417 414
 3 414 417 418
 3 415 414 419
 3 417 420 418
 3 419 421 415
 3 422 419 414
 3 414 418 422
 3 423 424 425
 3 425 424 426
 3 424 427 426
 3 425 426 428
 3 429 430 431
 3 431 430 432
 3 430 433 432
 3 431 432 434
 3 435 436 437
 3 437 436 438
 3 436 439 438
 3 437 438 440
 3 441 442 443
 3 443 442 444
 3 442 445 444
 3 443 444 446
 3 447 448 449
 3 449 448 450
 3 448 451 450
 3 449 450 452
 3 453 454 455
 3 455 454 456
 3 454 457 456
 3 455 456 458
 3 459 460 461
 3 461 462 459
 3 459 462 463
 3 460 459 464
 3 462 465 463
 3 464 466 460
 3 467 464 459
 3 459 463 467
 3 468 469 470
 3 470 471 468
 3 468 471 472
 3 469 468 473
 3 471 474 472
 3 473 475 469
 3 476 473 468
 3 468 472 476
 3 477 478 479
 3 479 480 477
 3 477 480 481
 3 478 477 482
 3 480 483 481
 3 482 484 478
 3 485 482 477
 3 477 481 485
 3 486 487 488
 3 488 489 486
 3 486 489 490
 3 487 486 491
 3 489 492 490
 3 491 493 487
 3 494 491 486
 3 486 490 494
 3 495 496 497
 3 497 498 495
 3 495 498 499
 3 496 495 500
 3 498 501 499
 3 500 502 496
 3 503 500 495
 3 495 499 503
 3 504 505 506
 3 506 507 504
 3 504 507 508
 3 505 504 509
 3 507 510 508
 3 509 511 505
 3 512 509 504
 3 504 508 512
 3 513 514 515
 3 515 514 516
 3 514 517 516
 3 515 516 518
 3 519 520 521
 3 521 520 522
 3 520 523 522
 3 521 522 524
 3 525 526 527
 3 527 526 528
 3 526 529 528
 3 527 528 530
 3 531 532 533
 3 533 532 534
 3 532 535 534
 3 533 534 536
 3 537 538 539
 3 539 538 540
 3 538 541 540
 3 539 540 542
 3 543 544 545
 3 545 544 546
 3 544 547 546
 3 545 546 548
 3 549 550 551
 3 551 550 552
 3 550 553 552
 3 551 552 554
 3 555 556 557
 3 557 556 558
 3 556 559 558
 3 557 558 560
 3 561 562 563
 3 563 562 564
 3 562 565 564
 3 563 564 566
 3 567 568 569
 3 569 568 570
 3 568 571 570
 3 569 570 572
 3 573 574 575
 3 575 574 576
 3 574 577 576
 3 575 576 578
 3 579 580 581
 3 581 580 582
 3 580 583 582
 3 581 582 584
 3 585 586 587
 3 587 586 588
 3 586 589 588
 3 587 588 590
 3 591 592 593
 3 593 592 594
 3 592 595 594
 3 593 594 596
 3 597 598 599
 3 599 598 600
 3 598 601 600
 3 599 600 602
 3 603 604 605
 3 605 604 606
 3 604 607 606
 3 605 606 608
 3 609 610 611
 3 611 610 612
 3 610 613 612
 3 611 612 614
 3 615 616 617
 3 617 616 618
 3 616 619 618
 3 617 618 620
 3 621 622 623
 3 623 622 624
 3 622 625 624
 3 623 624 626
 3 627 628 629
 3 629 628 630
 3 628 631 630
 3 629 630 632
 3 633 634 635
 3 635 634 636
 3 634 637 636
 3 635 636 638
 3 639 640 641
 3 641 640 642
 3 640 643 642
 3 641 642 644
 3 645 646 647
 3 647 646 648
 3 646 649 648
 3 647 648 650
 3 651 652 653
 3 653 652 654
 3 652 655 654
 3 653 654 656
 3 657 658 659
 3 659 658 660
 3 658 661 660
 3 659 660 662
 3 663 664 665
 3 665 664 666
 3 664 667 666
 3 665 666 668
 3 669 670 671
 3 671 670 672
 3 670 673 672
 3 671 672 674
 3 675 676 677
 3 677 676 678
 3 676 679 678
 3 677 678 680
 3 681 682 683
 3 683 682 684
 3 682 685 684
 3 683 684 686
 3 687 688 689
 3 689 688 690
 3 688 691 690
 3 689 690 692
 3 693 694 695
 3 695 694 696
 3 694 697 696
 3 695 696 698
 3 699 700 701
 3 701 700 702
 3 700 703 702
 3 701 702 704
 3 705 706 707
 3 707 706 708
 3 706 709 708
 3 707 708 710
 3 711 712 713
 3 713 714 711
 3 711 714 715
 3 712 711 716
 3 714 717 715
 3 716 718 712
 3 719 716 711
 3 711 715 719
 3 720 721 722
 3 722 723 720
 3 720 723 724
 3 721 720 725
 3 723 726 724
 3 725 727 721
 3 728 725 720
 3 720 724 728
 3 729 730 731
 3 731 732 729
 3 729 732 733
 3 730 729 734
 3 732 735 733
 3 734 736 730
 3 737 734 729
 3 729 733 737
 3 738 739 740
 3 740 741 738
 3 738 741 742
 3 739 738 743
 3 741 744 742
 3 743 745 739
 3 746 743 738
 3 738 742 746
 3 747 748 749
 3 749 750 747
 3 747 750 751
 3 748 747 752
 3 750 753 751
 3 752 754 748
 3 755 752 747
 3 747 751 755
 3 756 757 758
 3 758 759 756
 3 756 759 760
 3 757 756 761
 3 759 762 760
 3 761 763 757
 3 764 761 756
 3 756 760 764
 3 765 766 767
 3 767 766 768
 3 766 769 768
 3 767 768 770
 3 771 772 773
 3 773 772 774
 3 772 775 774
 3 773 774 776
 3 777 778 779
 3 779 778 780
 3 778 781 780
 3 779 780 782
 3 783 784 785
 3 785 784 786
 3 784 787 786
 3 785 786 788
 3 789 790 791
 3 791 790 792
 3 790 793 792
 3 791 792 794
 3 795 796 797
 3 797 796 798
 3 796 799 798
 3 797 798 800
 3 801 802 803
 3 803 802 804
 3 802 805 804
 3 803 804 806
 3 807 808 809
 3 809 808 810
 3 808 811 810
 3 809 810 812
 3 813 814 815
 3 815 814 816
 3 814 817 816
 3 815 816 818
 3 819 820 821
 3 821 820 822
 3 821 822 823
 3 820 824 822
 3 825 826 827
 3 827 826 828
 3 827 828 829
 3 826 830 828
 3 831 832 833
 3 833 832 834
 3 833 834 835
 3 832 836 834
 3 837 838 839
 3 839 840 837
 3 837 840 841
 3 838 837 842
 3 840 843 841
 3 842 844 838
 3 845 842 837
 3 837 841 845
 3 846 847 848
 3 848 849 846
 3 846 849 850
 3 847 846 851
 3 849 852 850
 3 851 853 847
 3 854 851 846
 3 846 850 854
 3 855 856 857
 3 857 858 855
 3 855 858 859
 3 856 855 860
 3 858 861 859
 3 860 862 856
 3 863 860 855
 3 855 859 863
 3 864 865 866
 3 866 867 864
 3 864 867 868
 3 865 864 869
 3 867 870 868
 3 869 871 865
 3 872 869 864
 3 864 868 872
 3 873 874 875
 3 875 876 873
 3 873 876 877
 3 874 873 878
 3 876 879 877
 3 878 880 874
 3 881 878 873
 3 873 877 881
 3 882 883 884
 3 884 885 882
 3 882 885 886
 3 883 882 887
 3 885 888 886
 3 887 889 883
 3 890 887 882
 3 882 886 890
 3 891 892 893
 3 893 894 891
 3 891 894 895
 3 892 891 896
 3 894 897 895
 3 896 898 892
 3 899 896 891
 3 891 895 899
 3 900 901 902
 3 902 903 900
 3 900 903 904
 3 901 900 905
 3 903 906 904
 3 905 907 901
 3 908 905 900
 3 900 904 908
 3 909 910 911
 3 911 912 909
 3 909 912 913
 3 910 909 914
 3 912 915 913
 3 914 916 910
 3 917 914 909
 3 909 913 917
 3 918 919 920
 3 920 921 918
 3 918 921 922
 3 919 918 923
 3 921 924 922
 3 923 925 919
 3 926 923 918
 3 918 922 926
 3 927 928 929
 3 929 930 927
 3 927 930 931
 3 928 927 932
 3 930 933 931
 3 932 934 928
 3 935 932 927
 3 927 931 935
 3 936 937 938
 3 938 939 936
 3 936 939 940
 3 937 936 941
 3 939 942 940
 3 941 943 937
 3 944 941 936
 3 936 940 944
 3 945 946 947
 3 947 946 948
 3 946 949 948
 3 947 948 950
 3 951 952 953
 3 953 952 954
 3 952 955 954
 3 953 954 956
 3 957 958 959
 3 959 958 960
 3 958 961 960
 3 959 960 962
 3 963 964 965
 3 965 964 966
 3 964 967 966
 3 965 966 968
 3 969 970 971
 3 971 970 972
 3 970 973 972
 3 971 972 974
 3 975 976 977
 3 977 978 975
 3 975 978 979
 3 976 975 980
 3 978 981 979
 3 980 982 976
 3 983 980 975
 3 975 979 983
 3 984 985 986
 3 986 987 984
 3 984 987 988
 3 985 984 989
 3 987 990 988
 3 989 991 985
 3 992 989 984
 3 984 988 992
 3 993 994 995
 3 995 994 996
 3 994 997 996
 3 995 996 998
 3 999 1000 1001
 3 1001 1000 1002
 3 1000 1003 1002
 3 1001 1002 1004
 3 1005 1006 1007
 3 1006 1005 1008
 3 1008 1009 1006
 3 1010 1008 1005
 3 1011 1012 1013
 3 1012 1011 1014
 3 1014 1015 1012
 3 1016 1014 1011
 3 1017 1018 1019
 3 1018 1017 1020
 3 1020 1021 1018
 3 1022 1020 1017
 3 1023 1024 1025
 3 1024 1023 1026
 3 1026 1027 1024
 3 1028 1026 1023
 3 1029 1030 1031
 3 1030 1029 1032
 3 1032 1033 1030
 3 1034 1032 1029
 3 1035 1036 1037
 3 1036 1035 1038
 3 1038 1039 1036
 3 1040 1038 1035
 3 1041 1042 1043
 3 1043 1042 1044
 3 1042 1045 1044
 3 1043 1044 1046
 3 1047 1048 1049
 3 1049 1048 1050
 3 1048 1051 1050
 3 1049 1050 1052
 3 1053 1054 1055
 3 1055 1054 1056
 3 1054 1057 1056
 3 1055 1056 1058
 3 1059 1060 1061
 3 1061 1060 1062
 3 1060 1063 1062
 3 1061 1062 1064
 3 1065 1066 1067
 3 1067 1066 1068
 3 1066 1069 1068
 3 1067 1068 1070
 3 1071 1072 1073
 3 1073 1072 1074
 3 1072 1075 1074
 3 1073 1074 1076
 3 1077 1078 1079
 3 1079 1078 1080
 3 1078 1081 1080
 3 1079 1080 1082
 3 1083 1084 1085
 3 1085 1084 1086
 3 1084 1087 1086
 3 1085 1086 1088
 3 1089 1090 1091
 3 1091 1090 1092
 3 1090 1093 1092
 3 1091 1092 1094
 3 1095 1096 1097
 3 1097 1096 1098
 3 1096 1099 1098
 3 1097 1098 1100
 3 1101 1102 1103
 3 1103 1102 1104
 3 1102 1105 1104
 3 1103 1104 1106
 3 1107 1108 1109
 3 1109 1108 1110
 3 1108 1111 1110
 3 1109 1110 1112
 3 1113 1114 1115
 3 1115 1116 1113
 3 1113 1116 1117
 3 1114 1113 1118
 3 1116 1119 1117
 3 1118 1120 1114
 3 1121 1118 1113
 3 1113 1117 1121
 3 1122 1123 1124
 3 1124 1125 1122
 3 1122 1125 1126
 3 1123 1122 1127
 3 1125 1128 1126
 3 1127 1129 1123
 3 1130 1127 1122
 3 1122 1126 1130
 3 1131 1132 1133
 3 1133 1134 1131
 3 1131 1134 1135
 3 1132 1131 1136
 3 1134 1137 1135
 3 1136 1138 1132
 3 1139 1136 1131
 3 1131 1135 1139
 3 1140 1141 1142
 3 1142 1143 1140
 3 1140 1143 1144
 3 1141 1140 1145
 3 1143 1146 1144
 3 1145 1147 1141
 3 1148 1145 1140
 3 1140 1144 1148
 3 1149 1150 1151
 3 1151 1152 1149
 3 1149 1152 1153
 3 1150 1149 1154
 3 1152 1155 1153
 3 1154 1156 1150
 3 1157 1154 1149
 3 1149 1153 1157
 3 1158 1159 1160
 3 1160 1161 1158
 3 1158 1161 1162
 3 1159 1158 1163
 3 1161 1164 1162
 3 1163 1165 1159
 3 1166 1163 1158
 3 1158 1162 1166
 3 1167 1168 1169
 3 1169 1168 1170
 3 1168 1171 1170
 3 1169 1170 1172
 3 1173 1174 1175
 3 1175 1174 1176
 3 1174 1177 1176
 3 1175 1176 1178
 3 1179 1180 1181
 3 1181 1180 1182
 3 1180 1183 1182
 3 1181 1182 1184
 3 1185 1186 1187
 3 1187 1188 1185
 3 1185 1188 1189
 3 1186 1185 1190
 3 1188 1191 1189
 3 1190 1192 1186
 3 1193 1190 1185
 3 1185 1189 1193
 3 1194 1195 1196
 3 1196 1197 1194
 3 1194 1197 1198
 3 1195 1194 1199
 3 1197 1200 1198
 3 1199 1201 1195
 3 1202 1199 1194
 3 1194 1198 1202
 3 1203 1204 1205
 3 1205 1206 1203
 3 1203 1206 1207
 3 1204 1203 1208
 3 1206 1209 1207
 3 1208 1210 1204
 3 1211 1208 1203
 3 1203 1207 1211
 3 1212 1213 1214
 3 1214 1215 1212
 3 1212 1215 1216
 3 1213 1212 1217
 3 1215 1218 1216
 3 1217 1219 1213
 3 1220 1217 1212
 3 1212 1216 1220
 3 1221 1222 1223
 3 1223 1224 1221
 3 1221 1224 1225
 3 1222 1221 1226
 3 1224 1227 1225
 3 1226 1228 1222
 3 1229 1226 1221
 3 1221 1225 1229
 3 1230 1231 1232
 3 1232 1233 1230
 3 1230 1233 1234
 3 1231 1230 1235
 3 1233 1236 1234
 3 1235 1237 1231
 3 1238 1235 1230
 3 1230 1234 1238
 3 1239 1240 1241
 3 1241 1242 1239
 3 1239 1242 1243
 3 1240 1239 1244
 3 1242 1245 1243
 3 1244 1246 1240
 3 1247 1244 1239
 3 1239 1243 1247
 3 1248 1249 1250
 3 1250 1251 1248
 3 1248 1251 1252
 3 1249 1248 1253
 3 1251 1254 1252
 3 1253 1255 1249
 3 1256 1253 1248
 3 1248 1252 1256
 3 1257 1258 1259
 3 1259 1260 1257
 3 1257 1260 1261
 3 1258 1257 1262
 3 1260 1263 1261
 3 1262 1264 1258
 3 1265 1262 1257
 3 1257 1261 1265
 3 1266 1267 1268
 3 1268 1269 1266
 3 1266 1269 1270
 3 1267 1266 1271
 3 1269 1272 1270
 3 1271 1273 1267
 3 1274 1271 1266
 3 1266 1270 1274
 3 1275 1276 1277
 3 1277 1278 1275
 3 1275 1278 1279
 3 1276 1275 1280
 3 1278 1281 1279
 3 1280 1282 1276
 3 1283 1280 1275
 3 1275 1279 1283
 3 1284 1285 1286
 3 1286 1287 1284
 3 1284 1287 1288
 3 1285 1284 1289
 3 1287 1290 1288
 3 1289 1291 1285
 3 1292 1289 1284
 3 1284 1288 1292
 3 1293 1294 1295
 3 1295 1294 1296
 3 1294 1297 1296
 3 1295 1296 1298
 3 1299 1300 1301
 3 1301 1300 1302
 3 1300 1303 1302
 3 1301 1302 1304
 3 1305 1306 1307
 3 1307 1306 1308
 3 1306 1309 1308
 3 1307 1308 1310
 3 1311 1312 1313
 3 1313 1312 1314
 3 1312 1315 1314
 3 1313 1314 1316
 3 1317 1318 1319
 3 1319 1318 1320
 3 1318 1321 1320
 3 1319 1320 1322
 3 1323 1324 1325
 3 1325 1324 1326
 3 1324 1327 1326
 3 1325 1326 1328
 3 1329 1330 1331
 3 1331 1332 1329
 3 1329 1332 1333
 3 1330 1329 1334
 3 1332 1335 1333
 3 1334 1336 1330
 3 1337 1334 1329
 3 1329 1333 1337
 3 1338 1339 1340
 3 1339 1338 1341
 3 1341 1342 1339
 3 1343 1341 1338
 3 1344 1345 1346
 3 1345 1344 1347
 3 1347 1348 1345
 3 1349 1347 1344
 3 1350 1351 1352
 3 1352 1353 1350
 3 1350 1353 1354
 3 1351 1350 1355
 3 1353 1356 1354
 3 1355 1357 1351
 3 1358 1355 1350
 3 1350 1354 1358
 3 1359 1360 1361
 3 1360 1359 1362
 3 1362 1363 1360
 3 1364 1362 1359
 3 1365 1366 1367
 3 1367 1366 1368
 3 1366 1369 1368
 3 1367 1368 1370
 3 1371 1372 1373
 3 1373 1372 1374
 3 1372 1375 1374
 3 1373 1374 1376
 3 1377 1378 1379
 3 1379 1378 1380
 3 1378 1381 1380
 3 1379 1380 1382
 3 1383 1384 1385
 3 1385 1384 1386
 3 1384 1387 1386
 3 1385 1386 1388
 3 1389 1390 1391
 3 1391 1390 1392
 3 1390 1393 1392
 3 1391 1392 1394
 3 1395 1396 1397
 3 1397 1396 1398
 3 1396 1399 1398
 3 1397 1398 1400
 3 1401 1402 1403
 3 1403 1402 1404
 3 1402 1405 1404
 3 1403 1404 1406
 3 1407 1408 1409
 3 1409 1408 1410
 3 1408 1411 1410
 3 1409 1410 1412
 3 1413 1414 1415
 3 1415 1414 1416
 3 1414 1417 1416
 3 1415 1416 1418
 3 1419 1420 1421
 3 1421 1420 1422
 3 1420 1423 1422
 3 1421 1422 1424
 3 1425 1426 1427
 3 1427 1426 1428
 3 1426 1429 1428
 3 1427 1428 1430
 3 1431 1432 1433
 3 1433 1432 1434
 3 1432 1435 1434
 3 1433 1434 1436
 3 1437 1438 1439
 3 1439 1438 1440
 3 1438 1441 1440
 3 1439 1440 1442
 3 1443 1444 1445
 3 1445 1444 1446
 3 1444 1447 1446
 3 1445 1446 1448
 3 1449 1450 1451
 3 1451 1452 1449
 3 1449 1452 1453
 3 1450 1449 1454
 3 1452 1455 1453
 3 1454 1456 1450
 3 1457 1454 1449
 3 1449 1453 1457
 3 1458 1459 1460
 3 1460 1461 1458
 3 1458 1461 1462
 3 1459 1458 1463
 3 1461 1464 1462
 3 1463 1465 1459
 3 1466 1463 1458
 3 1458 1462 1466
 3 1467 1468 1469
 3 1469 1468 1470
 3 1468 1471 1470
 3 1469 1470 1472
 3 1473 1474 1475
 3 1475 1476 1473
 3 1473 1476 1477
 3 1474 1473 1478
 3 1476 1479 1477
 3 1478 1480 1474
 3 1481 1478 1473
 3 1473 1477 1481
 3 1482 1483 1484
 3 1484 1483 1485
 3 1483 1486 1485
 3 1484 1485 1487
 3 1488 1489 1490
 3 1490 1489 1491
 3 1489 1492 1491
 3 1490 1491 1493
 3 1494 1495 1496
 3 1496 1495 1497
 3 1495 1498 1497
 3 1496 1497 1499
 3 1500 1501 1502
 3 1502 1501 1503
 3 1501 1504 1503
 3 1502 1503 1505
 3 1506 1507 1508
 3 1508 1507 1509
 3 1507 1510 1509
 3 1508 1509 1511
 3 1512 1513 1514
 3 1514 1513 1515
 3 1513 1516 1515
 3 1514 1515 1517
 3 1518 1519 1520
 3 1520 1519 1521
 3 1519 1522 1521
 3 1520 1521 1523
 3 1524 1525 1526
 3 1526 1525 1527
 3 1525 1528 1527
 3 1526 1527 1529
 3 1530 1531 1532
 3 1532 1531 1533
 3 1531 1534 1533
 3 1532 1533 1535
 3 1536 1537 1538
 3 1538 1537 1539
 3 1537 1540 1539
 3 1538 1539 1541
 3 1542 1543 1544
 3 1544 1543 1545
 3 1543 1546 1545
 3 1544 1545 1547
 3 1548 1549 1550
 3 1550 1549 1551
 3 1549 1552 1551
 3 1550 1551 1553
 3 1554 1555 1556
 3 1556 1557 1554
 3 1554 1557 1558
 3 1555 1554 1559
 3 1557 1560 1558
 3 1559 1561 1555
 3 1562 1559 1554
 3 1554 1558 1562
 3 1563 1564 1565
 3 1565 1564 1566
 3 1564 1567 1566
 3 1565 1566 1568
 3 1569 1570 1571
 3 1571 1572 1569
 3 1569 1572 1573
 3 1570 1569 1574
 3 1572 1575 1573
 3 1574 1576 1570
 3 1577 1574 1569
 3 1569 1573 1577
 3 1578 1579 1580
 3 1580 1581 1578
 3 1578 1581 1582
 3 1579 1578 1583
 3 1581 1584 1582
 3 1583 1585 1579
 3 1586 1583 1578
 3 1578 1582 1586
 3 1587 1588 1589
 3 1589 1590 1587
 3 1587 1590 1591
 3 1588 1587 1592
 3 1590 1593 1591
 3 1592 1594 1588
 3 1595 1592 1587
 3 1587 1591 1595
 3 1596 1597 1598
 3 1598 1599 1596
 3 1596 1599 1600
 3 1597 1596 1601
 3 1599 1602 1600
 3 1601 1603 1597
 3 1604 1601 1596
 3 1596 1600 1604
 3 1605 1606 1607
 3 1607 1608 1605
 3 1605 1608 1609
 3 1606 1605 1610
 3 1608 1611 1609
 3 1610 1612 1606
 3 1613 1610 1605
 3 1605 1609 1613
 3 1614 1615 1616
 3 1616 1617 1614
 3 1614 1617 1618
 3 1615 1614 1619
 3 1617 1620 1618
 3 1619 1621 1615
 3 1622 1619 1614
 3 1614 1618 1622
 3 1623 1624 1625
 3 1625 1624 1626
 3 1624 1627 1626
 3 1625 1626 1628
 3 1629 1630 1631
 3 1631 1630 1632
 3 1630 1633 1632
 3 1631 1632 1634
 3 1635 1636 1637
 3 1637 1636 1638
 3 1636 1639 1638
 3 1637 1638 1640
 3 1641 1642 1643
 3 1643 1642 1644
 3 1642 1645 1644
 3 1643 1644 1646
 3 1647 1648 1649
 3 1649 1648 1650
 3 1648 1651 1650
 3 1649 1650 1652
 3 1653 1654 1655
 3 1655 1654 1656
 3 1654 1657 1656
 3 1655 1656 1658
 3 1659 1660 1661
 3 1661 1660 1662
 3 1660 1663 1662
 3 1661 1662 1664
 3 1665 1666 1667
 3 1667 1666 1668
 3 1666 1669 1668
 3 1667 1668 1670
 3 1671 1672 1673
 3 1673 1672 1674
 3 1672 1675 1674
 3 1673 1674 1676
 3 1677 1678 1679
 3 1679 1678 1680
 3 1678 1681 1680
 3 1679 1680 1682
 3 1683 1684 1685
 3 1685 1684 1686
 3 1684 1687 1686
 3 1685 1686 1688
 3 1689 1690 1691
 3 1691 1690 1692
 3 1690 1693 1692
 3 1691 1692 1694
 3 1695 1696 1697
 3 1697 1696 1698
 3 1696 1699 1698
 3 1697 1698 1700
 3 1701 1702 1703
 3 1703 1702 1704
 3 1702 1705 1704
 3 1703 1704 1706
 3 1707 1708 1709
 3 1709 1708 1710
 3 1708 1711 1710
 3 1709 1710 1712
 3 1713 1714 1715
 3 1715 1714 1716
 3 1714 1717 1716
 3 1715 1716 1718
 3 1719 1720 1721
 3 1721 1720 1722
 3 1720 1723 1722
 3 1721 1722 1724
 3 1725 1726 1727
 3 1727 1726 1728
 3 1726 1729 1728
 3 1727 1728 1730
 3 1731 1732 1733
 3 1732 1731 1734
 3 1734 1735 1732
 3 1736 1734 1731
 3 1737 1738 1739
 3 1739 1738 1740
 3 1738 1741 1740
 3 1739 1740 1742
 3 1743 1744 1745
 3 1745 1744 1746
 3 1744 1747 1746
 3 1745 1746 1748
 3 1749 1750 1751
 3 1751 1750 1752
 3 1750 1753 1752
 3 1751 1752 1754
 3 1755 1756 1757
 3 1757 1756 1758
 3 1756 1759 1758
 3 1757 1758 1760
 3 1761 1762 1763
 3 1763 1762 1764
 3 1762 1765 1764
 3 1763 1764 1766
 3 1767 1768 1769
 3 1769 1768 1770
 3 1768 1771 1770
 3 1769 1770 1772
 3 1773 1774 1775
 3 1775 1774 1776
 3 1774 1777 1776
 3 1775 1776 1778
 3 1779 1780 1781
 3 1781 1782 1779
 3 1779 1782 1783
 3 1780 1779 1784
 3 1782 1785 1783
 3 1784 1786 1780
 3 1787 1784 1779
 3 1779 1783 1787
 3 1788 1789 1790
 3 1790 1791 1788
 3 1788 1791 1792
 3 1789 1788 1793
 3 1791 1794 1792
 3 1793 1795 1789
 3 1796 1793 1788
 3 1788 1792 1796
 3 1797 1798 1799
 3 1799 1798 1800
 3 1798 1801 1800
 3 1799 1800 1802
 3 1803 1804 1805
 3 1805 1804 1806
 3 1804 1807 1806
 3 1805 1806 1808
 3 1809 1810 1811
 3 1811 1810 1812
 3 1810 1813 1812
 3 1811 1812 1814
 3 1815 1816 1817
 3 1817 1816 1818
 3 1816 1819 1818
 3 1817 1818 1820
 3 1821 1822 1823
 3 1823 1822 1824
 3 1822 1825 1824
 3 1823 1824 1826
 3 1827 1828 1829
 3 1829 1828 1830
 3 1828 1831 1830
 3 1829 1830 1832
 3 1833 1834 1835
 3 1835 1834 1836
 3 1834 1837 1836
 3 1835 1836 1838
 3 1839 1840 1841
 3 1841 1840 1842
 3 1840 1843 1842
 3 1841 1842 1844
 3 1845 1846 1847
 3 1847 1846 1848
 3 1846 1849 1848
 3 1847 1848 1850
 3 1851 1852 1853
 3 1853 1852 1854
 3 1852 1855 1854
 3 1853 1854 1856
 3 1857 1858 1859
 3 1859 1858 1860
 3 1858 1861 1860
 3 1859 1860 1862
 3 1863 1864 1865
 3 1865 1864 1866
 3 1864 1867 1866
 3 1865 1866 1868
 3 1869 1870 1871
 3 1871 1870 1872
 3 1870 1873 1872
 3 1871 1872 1874
 3 1875 1876 1877
 3 1877 1876 1878
 3 1876 1879 1878
 3 1877 1878 1880
 3 1881 1882 1883
 3 1883 1882 1884
 3 1882 1885 1884
 3 1883 1884 1886
 3 1887 1888 1889
 3 1889 1888 1890
 3 1888 1891 1890
 3 1889 1890 1892
 3 1893 1894 1895
 3 1895 1894 1896
 3 1894 1897 1896
 3 1895 1896 1898
 3 1899 1900 1901
 3 1901 1900 1902
 3 1900 1903 1902
 3 1901 1902 1904
 3 1905 1906 1907
 3 1907 1906 1908
 3 1906 1909 1908
 3 1907 1908 1910
 3 1911 1912 1913
 3 1913 1912 1914
 3 1912 1915 1914
 3 1913 1914 1916
 3 1917 1918 1919
 3 1919 1918 1920
 3 1918 1921 1920
 3 1919 1920 1922
 3 1923 1924 1925
 3 1925 1924 1926
 3 1924 1927 1926
 3 1925 1926 1928
 3 1929 1930 1931
 3 1931 1930 1932
 3 1930 1933 1932
 3 1931 1932 1934
 3 1935 1936 1937
 3 1937 1936 1938
 3 1936 1939 1938
 3 1937 1938 1940
 3 1941 1942 1943
 3 1943 1942 1944
 3 1942 1945 1944
 3 1943 1944 1946
 3 1947 1948 1949
 3 1949 1948 1950
 3 1948 1951 1950
 3 1949 1950 1952
 3 1953 1954 1955
 3 1955 1954 1956
 3 1954 1957 1956
 3 1955 1956 1958
 3 1959 1960 1961
 3 1961 1960 1962
 3 1960 1963 1962
 3 1961 1962 1964
 3 1965 1966 1967
 3 1967 1966 1968
 3 1966 1969 1968
 3 1967 1968 1970
 3 1971 1972 1973
 3 1973 1972 1974
 3 1972 1975 1974
 3 1973 1974 1976
 3 1977 1978 1979
 3 1979 1978 1980
 3 1978 1981 1980
 3 1979 1980 1982
 3 1983 1984 1985
 3 1985 1984 1986
 3 1984 1987 1986
 3 1985 1986 1988
 3 1989 1990 1991
 3 1991 1990 1992
 3 1990 1993 1992
 3 1991 1992 1994
 3 1995 1996 1997
 3 1997 1996 1998
 3 1996 1999 1998
 3 1997 1998 2000
 3 2001 2002 2003
 3 2003 2002 2004
 3 2002 2005 2004
 3 2003 2004 2006
 3 2007 2008 2009
 3 2009 2010 2007
 3 2007 2010 2011
 3 2008 2007 2012
 3 2010 2013 2011
 3 2012 2014 2008
 3 2015 2012 2007
 3 2007 2011 2015
 3 2016 2017 2018
 3 2018 2019 2016
 3 2016 2019 2020
 3 2017 2016 2021
 3 2019 2022 2020
 3 2021 2023 2017
 3 2024 2021 2016
 3 2016 2020 2024
 3 2025 2026 2027
 3 2027 2028 2025
 3 2025 2028 2029
 3 2026 2025 2030
 3 2028 2031 2029
 3 2030 2032 2026
 3 2033 2030 2025
 3 2025 2029 2033
 3 2034 2035 2036
 3 2036 2037 2034
 3 2034 2037 2038
 3 2035 2034 2039
 3 2037 2040 2038
 3 2039 2041 2035
 3 2042 2039 2034
 3 2034 2038 2042
 3 2043 2044 2045
 3 2045 2046 2043
 3 2043 2046 2047
 3 2044 2043 2048
 3 2046 2049 2047
 3 2048 2050 2044
 3 2051 2048 2043
 3 2043 2047 2051
 3 2052 2053 2054
 3 2054 2055 2052
 3 2052 2055 2056
 3 2053 2052 2057
 3 2055 2058 2056
 3 2057 2059 2053
 3 2060 2057 2052
 3 2052 2056 2060
 3 2061 2062 2063
 3 2063 2062 2064
 3 2062 2065 2064
 3 2063 2064 2066
 3 2067 2068 2069
 3 2069 2068 2070
 3 2068 2071 2070
 3 2069 2070 2072
 3 2073 2074 2075
 3 2075 2074 2076
 3 2074 2077 2076
 3 2075 2076 2078
 3 2079 2080 2081
 3 2081 2080 2082
 3 2080 2083 2082
 3 2081 2082 2084
 3 2085 2086 2087
 3 2087 2086 2088
 3 2086 2089 2088
 3 2087 2088 2090
 3 2091 2092 2093
 3 2093 2092 2094
 3 2092 2095 2094
 3 2093 2094 2096
 3 2097 2098 2099
 3 2099 2100 2097
 3 2097 2100 2101
 3 2098 2097 2102
 3 2100 2103 2101
 3 2102 2104 2098
 3 2105 2102 2097
 3 2097 2101 2105
 3 2106 2107 2108
 3 2108 2109 2106
 3 2106 2109 2110
 3 2107 2106 2111
 3 2109 2112 2110
 3 2111 2113 2107
 3 2114 2111 2106
 3 2106 2110 2114
 3 2115 2116 2117
 3 2117 2118 2115
 3 2115 2118 2119
 3 2116 2115 2120
 3 2118 2121 2119
 3 2120 2122 2116
 3 2123 2120 2115
 3 2115 2119 2123
 3 2124 2125 2126
 3 2126 2127 2124
 3 2124 2127 2128
 3 2125 2124 2129
 3 2127 2130 2128
 3 2129 2131 2125
 3 2132 2129 2124
 3 2124 2128 2132
 3 2133 2134 2135
 3 2135 2136 2133
 3 2133 2136 2137
 3 2134 2133 2138
 3 2136 2139 2137
 3 2138 2140 2134
 3 2141 2138 2133
 3 2133 2137 2141
 3 2142 2143 2144
 3 2144 2145 2142
 3 2142 2145 2146
 3 2143 2142 2147
 3 2145 2148 2146
 3 2147 2149 2143
 3 2150 2147 2142
 3 2142 2146 2150
 3 2151 2152 2153
 3 2153 2152 2154
 3 2152 2155 2154
 3 2153 2154 2156
 3 2157 2158 2159
 3 2159 2158 2160
 3 2158 2161 2160
 3 2159 2160 2162
 3 2163 2164 2165
 3 2165 2164 2166
 3 2164 2167 2166
 3 2165 2166 2168
 3 2169 2170 2171
 3 2171 2170 2172
 3 2170 2173 2172
 3 2171 2172 2174
 3 2175 2176 2177
 3 2177 2176 2178
 3 2176 2179 2178
 3 2177 2178 2180
 3 2181 2182 2183
 3 2183 2182 2184
 3 2182 2185 2184
 3 2183 2184 2186
 3 2187 2188 2189
 3 2189 2188 2190
 3 2188 2191 2190
 3 2189 2190 2192
 3 2193 2194 2195
 3 2195 2194 2196
 3 2194 2197 2196
 3 2195 2196 2198
 3 2199 2200 2201
 3 2201 2200 2202
 3 2200 2203 2202
 3 2201 2202 2204
 3 2205 2206 2207
 3 2207 2206 2208
 3 2206 2209 2208
 3 2207 2208 2210
 3 2211 2212 2213
 3 2213 2212 2214
 3 2212 2215 2214
 3 2213 2214 2216
 3 2217 2218 2219
 3 2219 2218 2220
 3 2218 2221 2220
 3 2219 2220 2222
 3 2223 2224 2225
 3 2225 2224 2226
 3 2224 2227 2226
 3 2225 2226 2228
 3 2229 2230 2231
 3 2231 2230 2232
 3 2230 2233 2232
 3 2231 2232 2234
 3 2235 2236 2237
 3 2237 2236 2238
 3 2236 2239 2238
 3 2237 2238 2240
 3 2241 2242 2243
 3 2243 2242 2244
 3 2242 2245 2244
 3 2243 2244 2246
 3 2247 2248 2249
 3 2249 2248 2250
 3 2248 2251 2250
 3 2249 2250 2252
 3 2253 2254 2255
 3 2255 2254 2256
 3 2254 2257 2256
 3 2255 2256 2258
 3 2259 2260 2261
 3 2261 2260 2262
 3 2260 2263 2262
 3 2261 2262 2264
 3 2265 2266 2267
 3 2267 2266 2268
 3 2266 2269 2268
 3 2267 2268 2270
 3 2271 2272 2273
 3 2273 2272 2274
 3 2272 2275 2274
 3 2273 2274 2276
 3 2277 2278 2279
 3 2279 2278 2280
 3 2278 2281 2280
 3 2279 2280 2282
 3 2283 2284 2285
 3 2285 2284 2286
 3 2284 2287 2286
 3 2285 2286 2288
 3 2289 2290 2291
 3 2291 2290 2292
 3 2290 2293 2292
 3 2291 2292 2294
 3 2295 2296 2297
 3 2297 2296 2298
 3 2296 2299 2298
 3 2297 2298 2300
 3 2301 2302 2303
 3 2303 2302 2304
 3 2302 2305 2304
 3 2303 2304 2306
 3 2307 2308 2309
 3 2309 2308 2310
 3 2308 2311 2310
 3 2309 2310 2312
 3 2313 2314 2315
 3 2315 2314 2316
 3 2314 2317 2316
 3 2315 2316 2318
 3 2319 2320 2321
 3 2321 2320 2322
 3 2320 2323 2322
 3 2321 2322 2324
 3 2325 2326 2327
 3 2327 2326 2328
 3 2326 2329 2328
 3 2327 2328 2330
 3 2331 2332 2333
 3 2333 2332 2334
 3 2332 2335 2334
 3 2333 2334 2336
 3 2337 2338 2339
 3 2339 2338 2340
 3 2338 2341 2340
 3 2339 2340 2342
 3 2343 2344 2345
 3 2345 2344 2346
 3 2344 2347 2346
 3 2345 2346 2348
 3 2349 2350 2351
 3 2351 2350 2352
 3 2350 2353 2352
 3 2351 2352 2354
 3 2355 2356 2357
 3 2357 2356 2358
 3 2356 2359 2358
 3 2357 2358 2360
 3 2361 2362 2363
 3 2363 2362 2364
 3 2362 2365 2364
 3 2363 2364 2366
 3 2367 2368 2369
 3 2369 2368 2370
 3 2368 2371 2370
 3 2369 2370 2372
 3 2373 2374 2375
 3 2375 2374 2376
 3 2374 2377 2376
 3 2375 2376 2378
 3 2379 2380 2381
 3 2381 2382 2379
 3 2379 2382 2383
 3 2380 2379 2384
 3 2382 2385 2383
 3 2384 2386 2380
 3 2387 2384 2379
 3 2379 2383 2387
 3 2388 2389 2390
 3 2390 2391 2388
 3 2388 2391 2392
 3 2389 2388 2393
 3 2391 2394 2392
 3 2393 2395 2389
 3 2396 2393 2388
 3 2388 2392 2396
 3 2397 2398 2399
 3 2399 2400 2397
 3 2397 2400 2401
 3 2398 2397 2402
 3 2400 2403 2401
 3 2402 2404 2398
 3 2405 2402 2397
 3 2397 2401 2405
 3 2406 2407 2408
 3 2408 2407 2409
 3 2407 2410 2409
 3 2408 2409 2411
 3 2412 2413 2414
 3 2414 2413 2415
 3 2413 2416 2415
 3 2414 2415 2417
 3 2418 2419 2420
 3 2420 2419 2421
 3 2419 2422 2421
 3 2420 2421 2423
 3 2424 2425 2426
 3 2426 2427 2424
 3 2424 2427 2428
 3 2425 2424 2429
 3 2427 2430 2428
 3 2429 2431 2425
 3 2432 2429 2424
 3 2424 2428 2432
 3 2433 2434 2435
 3 2435 2436 2433
 3 2433 2436 2437
 3 2434 2433 2438
 3 2436 2439 2437
 3 2438 2440 2434
 3 2441 2438 2433
 3 2433 2437 2441
 3 2442 2443 2444
 3 2444 2445 2442
 3 2442 2445 2446
 3 2443 2442 2447
 3 2445 2448 2446
 3 2447 2449 2443
 3 2450 2447 2442
 3 2442 2446 2450
 3 2451 2452 2453
 3 2453 2454 2451
 3 2451 2454 2455
 3 2452 2451 2456
 3 2454 2457 2455
 3 2456 2458 2452
 3 2459 2456 2451
 3 2451 2455 2459
 3 2460 2461 2462
 3 2462 2463 2460
 3 2460 2463 2464
 3 2461 2460 2465
 3 2463 2466 2464
 3 2465 2467 2461
 3 2468 2465 2460
 3 2460 2464 2468
 3 2469 2470 2471
 3 2471 2472 2469
 3 2469 2472 2473
 3 2470 2469 2474
 3 2472 2475 2473
 3 2474 2476 2470
 3 2477 2474 2469
 3 2469 2473 2477
 3 2478 2479 2480
 3 2480 2481 2478
 3 2478 2481 2482
 3 2479 2478 2483
 3 2481 2484 2482
 3 2483 2485 2479
 3 2486 2483 2478
 3 2478 2482 2486
 3 2487 2488 2489
 3 2489 2490 2487
 3 2487 2490 2491
 3 2488 2487 2492
 3 2490 2493 2491
 3 2492 2494 2488
 3 2495 2492 2487
 3 2487 2491 2495
 3 2496 2497 2498
 3 2498 2499 2496
 3 2496 2499 2500
 3 2497 2496 2501
 3 2499 2502 2500
 3 2501 2503 2497
 3 2504 2501 2496
 3 2496 2500 2504
 3 2505 2506 2507
 3 2507 2506 2508
 3 2506 2509 2508
 3 2507 2508 2510
 3 2511 2512 2513
 3 2513 2512 2514
 3 2512 2515 2514
 3 2513 2514 2516
 3 2517 2518 2519
 3 2519 2518 2520
 3 2518 2521 2520
 3 2519 2520 2522
 3 2523 2524 2525
 3 2525 2524 2526
 3 2524 2527 2526
 3 2525 2526 2528
 3 2529 2530 2531
 3 2531 2530 2532
 3 2530 2533 2532
 3 2531 2532 2534
 3 2535 2536 2537
 3 2537 2536 2538
 3 2536 2539 2538
 3 2537 2538 2540
 3 2541 2542 2543
 3 2543 2542 2544
 3 2542 2545 2544
 3 2543 2544 2546
 3 2547 2548 2549
 3 2549 2548 2550
 3 2548 2551 2550
 3 2549 2550 2552
 3 2553 2554 2555
 3 2555 2554 2556
 3 2554 2557 2556
 3 2555 2556 2558
 3 2559 2560 2561
 3 2561 2560 2562
 3 2560 2563 2562
 3 2561 2562 2564
 3 2565 2566 2567
 3 2567 2566 2568
 3 2566 2569 2568
 3 2567 2568 2570
 3 2571 2572 2573
 3 2573 2572 2574
 3 2572 2575 2574
 3 2573 2574 2576
 3 2577 2578 2579
 3 2579 2578 2580
 3 2578 2581 2580
 3 2579 2580 2582
 3 2583 2584 2585
 3 2585 2584 2586
 3 2584 2587 2586
 3 2585 2586 2588
 3 2589 2590 2591
 3 2591 2590 2592
 3 2590 2593 2592
 3 2591 2592 2594
 3 2595 2596 2597
 3 2597 2596 2598
 3 2596 2599 2598
 3 2597 2598 2600
 3 2601 2602 2603
 3 2603 2602 2604
 3 2602 2605 2604
 3 2603 2604 2606
 3 2607 2608 2609
 3 2609 2608 2610
 3 2608 2611 2610
 3 2609 2610 2612
 3 2613 2614 2615
 3 2615 2614 2616
 3 2614 2617 2616
 3 2615 2616 2618
 3 2619 2620 2621
 3 2621 2620 2622
 3 2620 2623 2622
 3 2621 2622 2624
 3 2625 2626 2627
 3 2627 2626 2628
 3 2626 2629 2628
 3 2627 2628 2630
 3 2631 2632 2633
 3 2633 2632 2634
 3 2632 2635 2634
 3 2633 2634 2636
 3 2637 2638 2639
 3 2639 2638 2640
 3 2638 2641 2640
 3 2639 2640 2642
 3 2643 2644 2645
 3 2645 2644 2646
 3 2644 2647 2646
 3 2645 2646 2648
 3 2649 2650 2651
 3 2651 2650 2652
 3 2650 2653 2652
 3 2651 2652 2654
 3 2655 2656 2657
 3 2657 2656 2658
 3 2656 2659 2658
 3 2657 2658 2660
 3 2661 2662 2663
 3 2663 2662 2664
 3 2662 2665 2664
 3 2663 2664 2666
 3 2667 2668 2669
 3 2669 2670 2667
 3 2667 2670 2671
 3 2668 2667 2672
 3 2670 2673 2671
 3 2672 2674 2668
 3 2675 2672 2667
 3 2667 2671 2675
 3 2676 2677 2678
 3 2678 2679 2676
 3 2676 2679 2680
 3 2677 2676 2681
 3 2679 2682 2680
 3 2681 2683 2677
 3 2684 2681 2676
 3 2676 2680 2684
 3 2685 2686 2687
 3 2687 2688 2685
 3 2685 2688 2689
 3 2686 2685 2690
 3 2688 2691 2689
 3 2690 2692 2686
 3 2693 2690 2685
 3 2685 2689 2693
 3 2694 2695 2696
 3 2696 2695 2697
 3 2695 2698 2697
 3 2696 2697 2699
 3 2700 2701 2702
 3 2702 2701 2703
 3 2701 2704 2703
 3 2702 2703 2705
 3 2706 2707 2708
 3 2708 2707 2709
 3 2707 2710 2709
 3 2708 2709 2711
 3 2712 2713 2714
 3 2714 2715 2712
 3 2712 2715 2716
 3 2713 2712 2717
 3 2716 2718 2717
 3 2715 2719 2716
 3 2716 2719 2718
 3 2717 2720 2713
 3 2717 2718 2720
 3 2721 2717 2712
 3 2712 2716 2721
 3 2721 2716 2717
 3 2722 2723 2724
 3 2724 2725 2722
 3 2722 2725 2726
 3 2723 2722 2727
 3 2726 2728 2727
 3 2725 2729 2726
 3 2726 2729 2728
 3 2727 2730 2723
 3 2727 2728 2730
 3 2731 2727 2722
 3 2722 2726 2731
 3 2731 2726 2727
 3 2732 2733 2734
 3 2734 2735 2732
 3 2732 2735 2736
 3 2733 2732 2737
 3 2736 2738 2737
 3 2735 2739 2736
 3 2736 2739 2738
 3 2737 2740 2733
 3 2737 2738 2740
 3 2741 2737 2732
 3 2732 2736 2741
 3 2741 2736 2737
 3 2742 2743 2744
 3 2744 2745 2742
 3 2742 2745 2746
 3 2743 2742 2747
 3 2745 2748 2746
 3 2747 2749 2743
 3 2750 2747 2742
 3 2742 2746 2750
 3 2751 2752 2753
 3 2753 2752 2754
 3 2752 2755 2754
 3 2753 2754 2756
 3 2757 2758 2759
 3 2759 2758 2760
 3 2758 2761 2760
 3 2759 2760 2762
 3 2763 2764 2765
 3 2765 2764 2766
 3 2764 2767 2766
 3 2765 2766 2768
 3 2769 2770 2771
 3 2771 2772 2769
 3 2769 2772 2773
 3 2770 2769 2774
 3 2772 2775 2773
 3 2774 2776 2770
 3 2777 2774 2769
 3 2769 2773 2777
 3 2778 2779 2780
 3 2780 2781 2778
 3 2778 2781 2782
 3 2779 2778 2783
 3 2781 2784 2782
 3 2783 2785 2779
 3 2786 2783 2778
 3 2778 2782 2786
 3 2787 2788 2789
 3 2789 2788 2790
 3 2788 2791 2790
 3 2789 2790 2792
 3 2793 2794 2795
 3 2795 2794 2796
 3 2794 2797 2796
 3 2795 2796 2798
 3 2799 2800 2801
 3 2801 2800 2802
 3 2800 2803 2802
 3 2801 2802 2804
 3 2805 2806 2807
 3 2807 2806 2808
 3 2806 2809 2808
 3 2807 2808 2810
 3 2811 2812 2813
 3 2813 2812 2814
 3 2812 2815 2814
 3 2813 2814 2816
 3 2817 2818 2819
 3 2819 2818 2820
 3 2818 2821 2820
 3 2819 2820 2822
 3 2823 2824 2825
 3 2825 2824 2826
 3 2825 2826 2823
 3 2823 2826 2827
 3 2826 2824 2828
 3 2824 2823 2829
 3 2826 2828 2830
 3 2826 2830 2827
 3 2829 2831 2824
 3 2824 2831 2828
 3 2832 2829 2823
 3 2823 2827 2832
 3 2833 2834 2835
 3 2835 2834 2836
 3 2835 2836 2833
 3 2833 2836 2837
 3 2836 2834 2838
 3 2834 2833 2839
 3 2836 2838 2840
 3 2836 2840 2837
 3 2839 2841 2834
 3 2834 2841 2838
 3 2842 2839 2833
 3 2833 2837 2842
 3 2843 2844 2845
 3 2845 2844 2846
 3 2845 2846 2843
 3 2843 2846 2847
 3 2846 2844 2848
 3 2844 2843 2849
 3 2846 2848 2850
 3 2846 2850 2847
 3 2849 2851 2844
 3 2844 2851 2848
 3 2852 2849 2843
 3 2843 2847 2852
 3 2853 2854 2855
 3 2855 2854 2856
 3 2855 2856 2853
 3 2853 2856 2857
 3 2856 2854 2858
 3 2854 2853 2859
 3 2856 2858 2860
 3 2856 2860 2857
 3 2859 2861 2854
 3 2854 2861 2858
 3 2862 2859 2853
 3 2853 2857 2862
 3 2863 2864 2865
 3 2865 2864 2866
 3 2865 2866 2863
 3 2863 2866 2867
 3 2866 2864 2868
 3 2864 2863 2869
 3 2866 2868 2870
 3 2866 2870 2867
 3 2869 2871 2864
 3 2864 2871 2868
 3 2872 2869 2863
 3 2863 2867 2872
 3 2873 2874 2875
 3 2875 2874 2876
 3 2875 2876 2873
 3 2873 2876 2877
 3 2876 2874 2878
 3 2874 2873 2879
 3 2876 2878 2880
 3 2876 2880 2877
 3 2879 2881 2874
 3 2874 2881 2878
 3 2882 2879 2873
 3 2873 2877 2882
 3 2883 2884 2885
 3 2885 2884 2886
 3 2884 2887 2886
 3 2885 2886 2888
 3 2889 2890 2891
 3 2891 2890 2892
 3 2890 2893 2892
 3 2891 2892 2894
 3 2895 2896 2897
 3 2897 2896 2898
 3 2896 2899 2898
 3 2897 2898 2900
 3 2901 2902 2903
 3 2902 2901 2904
 3 2904 2905 2902
 3 2906 2904 2901
 3 2907 2908 2909
 3 2908 2907 2910
 3 2910 2911 2908
 3 2912 2910 2907
 3 2913 2914 2915
 3 2914 2913 2916
 3 2916 2917 2914
 3 2918 2916 2913
 3 2919 2920 2921
 3 2920 2919 2922
 3 2922 2923 2920
 3 2924 2922 2919
 3 2925 2926 2927
 3 2926 2925 2928
 3 2928 2929 2926
 3 2930 2928 2925
 3 2931 2932 2933
 3 2932 2931 2934
 3 2934 2935 2932
 3 2936 2934 2931
 3 2937 2938 2939
 3 2939 2938 2940
 3 2938 2941 2940
 3 2939 2940 2942
 3 2943 2944 2945
 3 2945 2944 2946
 3 2944 2947 2946
 3 2945 2946 2948
 3 2949 2950 2951
 3 2951 2950 2952
 3 2950 2953 2952
 3 2951 2952 2954
 3 2955 2956 2957
 3 2957 2956 2958
 3 2956 2959 2958
 3 2957 2958 2960
 3 2961 2962 2963
 3 2963 2962 2964
 3 2962 2965 2964
 3 2963 2964 2966
 3 2967 2968 2969
 3 2969 2968 2970
 3 2968 2971 2970
 3 2969 2970 2972
 3 2973 2974 2975
 3 2975 2974 2976
 3 2974 2977 2976
 3 2975 2976 2978
 3 2979 2980 2981
 3 2981 2980 2982
 3 2980 2983 2982
 3 2981 2982 2984
 3 2985 2986 2987
 3 2987 2986 2988
 3 2986 2989 2988
 3 2987 2988 2990
 3 2991 2992 2993
 3 2993 2994 2991
 3 2991 2994 2995
 3 2992 2991 2996
 3 2994 2997 2995
 3 2996 2998 2992
 3 2999 2996 2991
 3 2991 2995 2999
 3 3000 3001 3002
 3 3002 3003 3000
 3 3000 3003 3004
 3 3001 3000 3005
 3 3003 3006 3004
 3 3005 3007 3001
 3 3008 3005 3000
 3 3000 3004 3008
 3 3009 3010 3011
 3 3011 3012 3009
 3 3009 3012 3013
 3 3010 3009 3014
 3 3012 3015 3013
 3 3014 3016 3010
 3 3017 3014 3009
 3 3009 3013 3017
 3 3018 3019 3020
 3 3020 3019 3021
 3 3019 3022 3021
 3 3020 3021 3023
 3 3024 3025 3026
 3 3026 3025 3027
 3 3025 3028 3027
 3 3026 3027 3029
 3 3030 3031 3032
 3 3032 3031 3033
 3 3031 3034 3033
 3 3032 3033 3035
 3 3036 3037 3038
 3 3038 3037 3039
 3 3037 3040 3039
 3 3038 3039 3041
 3 3042 3043 3044
 3 3044 3043 3045
 3 3043 3046 3045
 3 3044 3045 3047
 3 3048 3049 3050
 3 3050 3049 3051
 3 3049 3052 3051
 3 3050 3051 3053
 3 3054 3055 3056
 3 3056 3055 3057
 3 3055 3058 3057
 3 3056 3057 3059
 3 3060 3061 3062
 3 3062 3061 3063
 3 3061 3064 3063
 3 3062 3063 3065
 3 3066 3067 3068
 3 3068 3067 3069
 3 3067 3070 3069
 3 3068 3069 3071
 3 3072 3073 3074
 3 3074 3073 3075
 3 3073 3076 3075
 3 3074 3075 3077
 3 3078 3079 3080
 3 3080 3079 3081
 3 3079 3082 3081
 3 3080 3081 3083
 3 3084 3085 3086
 3 3086 3087 3084
 3 3084 3087 3088
 3 3085 3084 3089
 3 3088 3090 3089
 3 3087 3091 3088
 3 3088 3091 3090
 3 3089 3092 3085
 3 3089 3090 3092
 3 3093 3089 3084
 3 3084 3088 3093
 3 3093 3088 3089
 3 3094 3095 3096
 3 3096 3097 3094
 3 3094 3097 3098
 3 3095 3094 3099
 3 3098 3100 3099
 3 3097 3101 3098
 3 3098 3101 3100
 3 3099 3102 3095
 3 3099 3100 3102
 3 3103 3099 3094
 3 3094 3098 3103
 3 3103 3098 3099
 3 3104 3105 3106
 3 3106 3107 3104
 3 3104 3107 3108
 3 3105 3104 3109
 3 3108 3110 3109
 3 3107 3111 3108
 3 3108 3111 3110
 3 3109 3112 3105
 3 3109 3110 3112
 3 3113 3109 3104
 3 3104 3108 3113
 3 3113 3108 3109
 3 3114 3115 3116
 3 3116 3117 3114
 3 3114 3117 3118
 3 3115 3114 3119
 3 3117 3120 3118
 3 3119 3121 3115
 3 3122 3119 3114
 3 3114 3118 3122
 3 3123 3124 3125
 3 3125 3126 3123
 3 3123 3126 3127
 3 3124 3123 3128
 3 3126 3129 3127
 3 3128 3130 3124
 3 3131 3128 3123
 3 3123 3127 3131
 3 3132 3133 3134
 3 3134 3133 3135
 3 3133 3136 3135
 3 3134 3135 3137
 3 3138 3139 3140
 3 3140 3139 3141
 3 3139 3142 3141
 3 3140 3141 3143
 3 3144 3145 3146
 3 3146 3145 3147
 3 3145 3148 3147
 3 3146 3147 3149
 3 3150 3151 3152
 3 3152 3151 3153
 3 3151 3154 3153
 3 3152 3153 3155
 3 3156 3157 3158
 3 3158 3157 3159
 3 3157 3160 3159
 3 3158 3159 3161
 3 3162 3163 3164
 3 3164 3163 3165
 3 3163 3166 3165
 3 3164 3165 3167
 3 3168 3169 3170
 3 3170 3169 3171
 3 3169 3172 3171
 3 3170 3171 3173
 3 3174 3175 3176
 3 3176 3175 3177
 3 3175 3178 3177
 3 3176 3177 3179
 3 3180 3181 3182
 3 3182 3183 3180
 3 3180 3183 3184
 3 3181 3180 3185
 3 3183 3186 3184
 3 3185 3187 3181
 3 3188 3185 3180
 3 3180 3184 3188
 3 3189 3190 3191
 3 3191 3192 3189
 3 3189 3192 3193
 3 3190 3189 3194
 3 3192 3195 3193
 3 3194 3196 3190
 3 3197 3194 3189
 3 3189 3193 3197
 3 3198 3199 3200
 3 3200 3199 3201
 3 3199 3202 3201
 3 3200 3201 3203
 3 3204 3205 3206
 3 3206 3205 3207
 3 3205 3208 3207
 3 3206 3207 3209
 3 3210 3211 3212
 3 3212 3211 3213
 3 3211 3214 3213
 3 3212 3213 3215
 3 3216 3217 3218
 3 3218 3217 3219
 3 3217 3220 3219
 3 3218 3219 3221
 3 3222 3223 3224
 3 3224 3223 3225
 3 3223 3226 3225
 3 3224 3225 3227
 3 3228 3229 3230
 3 3230 3229 3231
 3 3229 3232 3231
 3 3230 3231 3233
 3 3234 3235 3236
 3 3236 3235 3237
 3 3235 3238 3237
 3 3236 3237 3239
 3 3240 3241 3242
 3 3242 3243 3240
 3 3240 3243 3244
 3 3241 3240 3245
 3 3243 3246 3244
 3 3245 3247 3241
 3 3248 3245 3240
 3 3240 3244 3248
 3 3249 3250 3251
 3 3251 3252 3249
 3 3249 3252 3253
 3 3250 3249 3254
 3 3252 3255 3253
 3 3254 3256 3250
 3 3257 3254 3249
 3 3249 3253 3257
 3 3258 3259 3260
 3 3260 3261 3258
 3 3258 3261 3262
 3 3259 3258 3263
 3 3261 3264 3262
 3 3263 3265 3259
 3 3266 3263 3258
 3 3258 3262 3266
 3 3267 3268 3269
 3 3269 3270 3267
 3 3267 3270 3271
 3 3268 3267 3272
 3 3270 3273 3271
 3 3272 3274 3268
 3 3275 3272 3267
 3 3267 3271 3275
 3 3276 3277 3278
 3 3278 3279 3276
 3 3276 3279 3280
 3 3277 3276 3281
 3 3279 3282 3280
 3 3281 3283 3277
 3 3284 3281 3276
 3 3276 3280 3284
 3 3285 3286 3287
 3 3287 3286 3288
 3 3286 3289 3288
 3 3287 3288 3290
 3 3291 3292 3293
 3 3293 3292 3294
 3 3292 3295 3294
 3 3293 3294 3296
 3 3297 3298 3299
 3 3299 3298 3300
 3 3298 3301 3300
 3 3299 3300 3302
 3 3303 3304 3305
 3 3305 3304 3306
 3 3304 3307 3306
 3 3305 3306 3308
 3 3309 3310 3311
 3 3311 3310 3312
 3 3310 3313 3312
 3 3311 3312 3314
 3 3315 3316 3317
 3 3317 3316 3318
 3 3316 3319 3318
 3 3317 3318 3320
 3 3321 3322 3323
 3 3323 3322 3324
 3 3322 3325 3324
 3 3323 3324 3326
 3 3327 3328 3329
 3 3329 3330 3327
 3 3327 3330 3331
 3 3328 3327 3332
 3 3330 3333 3331
 3 3332 3334 3328
 3 3335 3332 3327
 3 3327 3331 3335
 3 3336 3337 3338
 3 3338 3339 3336
 3 3336 3339 3340
 3 3337 3336 3341
 3 3339 3342 3340
 3 3341 3343 3337
 3 3344 3341 3336
 3 3336 3340 3344
 3 3345 3346 3347
 3 3347 3346 3348
 3 3346 3349 3348
 3 3347 3348 3350
 3 3351 3352 3353
 3 3353 3354 3351
 3 3351 3354 3355
 3 3352 3351 3356
 3 3354 3357 3355
 3 3356 3358 3352
 3 3359 3356 3351
 3 3351 3355 3359
 3 3360 3361 3362
 3 3362 3361 3363
 3 3361 3364 3363
 3 3362 3363 3365
 3 3366 3367 3368
 3 3368 3367 3369
 3 3367 3370 3369
 3 3368 3369 3371
 3 3372 3373 3374
 3 3374 3373 3375
 3 3373 3376 3375
 3 3374 3375 3377
 3 3378 3379 3380
 3 3380 3379 3381
 3 3379 3382 3381
 3 3380 3381 3383
 3 3384 3385 3386
 3 3386 3385 3387
 3 3385 3388 3387
 3 3386 3387 3389
 3 3390 3391 3392
 3 3392 3391 3393
 3 3391 3394 3393
 3 3392 3393 3395
 3 3396 3397 3398
 3 3398 3397 3399
 3 3397 3400 3399
 3 3398 3399 3401
 3 3402 3403 3404
 3 3404 3403 3405
 3 3403 3406 3405
 3 3404 3405 3407
 3 3408 3409 3410
 3 3410 3409 3411
 3 3409 3412 3411
 3 3410 3411 3413
 3 3414 3415 3416
 3 3416 3415 3417
 3 3415 3418 3417
 3 3416 3417 3419
 3 3420 3421 3422
 3 3422 3421 3423
 3 3421 3424 3423
 3 3422 3423 3425
 3 3426 3427 3428
 3 3428 3427 3429
 3 3427 3430 3429
 3 3428 3429 3431
 3 3432 3433 3434
 3 3434 3433 3435
 3 3433 3436 3435
 3 3434 3435 3437
 3 3438 3439 3440
 3 3440 3441 3438
 3 3438 3441 3442
 3 3439 3438 3443
 3 3441 3444 3442
 3 3443 3445 3439
 3 3446 3443 3438
 3 3438 3442 3446
 3 3447 3448 3449
 3 3449 3448 3450
 3 3448 3451 3450
 3 3449 3450 3452
 3 3453 3454 3455
 3 3455 3454 3456
 3 3454 3457 3456
 3 3455 3456 3458
 3 3459 3460 3461
 3 3461 3460 3462
 3 3462 3463 3464
 3 3460 3465 3462
 3 3462 3465 3463
 3 3464 3463 3466
 3 3461 3462 3467
 3 3467 3462 3464
 3 3468 3469 3470
 3 3469 3468 3471
 3 3472 3473 3471
 3 3472 3474 3473
 3 3471 3475 3469
 3 3471 3473 3475
 3 3476 3471 3468
 3 3476 3472 3471
 3 3477 3478 3479
 3 3479 3478 3480
 3 3480 3481 3482
 3 3478 3483 3480
 3 3480 3483 3481
 3 3482 3481 3484
 3 3479 3480 3485
 3 3485 3480 3482
 3 3486 3487 3488
 3 3487 3486 3489
 3 3490 3491 3489
 3 3490 3492 3491
 3 3489 3493 3487
 3 3489 3491 3493
 3 3494 3489 3486
 3 3494 3490 3489
 3 3495 3496 3497
 3 3497 3496 3498
 3 3498 3499 3500
 3 3496 3501 3498
 3 3498 3501 3499
 3 3500 3499 3502
 3 3497 3498 3503
 3 3503 3498 3500
 3 3504 3505 3506
 3 3505 3504 3507
 3 3508 3509 3507
 3 3508 3510 3509
 3 3507 3511 3505
 3 3507 3509 3511
 3 3512 3507 3504
 3 3512 3508 3507
 3 3513 3514 3515
 3 3515 3514 3516
 3 3514 3517 3516
 3 3515 3516 3518
 3 3519 3520 3521
 3 3521 3520 3522
 3 3520 3523 3522
 3 3521 3522 3524
 3 3525 3526 3527
 3 3527 3526 3528
 3 3526 3529 3528
 3 3527 3528 3530
 3 3531 3532 3533
 3 3533 3532 3534
 3 3532 3535 3534
 3 3533 3534 3536
 3 3537 3538 3539
 3 3539 3538 3540
 3 3538 3541 3540
 3 3539 3540 3542
 3 3543 3544 3545
 3 3545 3544 3546
 3 3544 3547 3546
 3 3545 3546 3548
 3 3549 3550 3551
 3 3551 3550 3552
 3 3550 3553 3552
 3 3551 3552 3554
 3 3555 3556 3557
 3 3557 3556 3558
 3 3556 3559 3558
 3 3557 3558 3560
 3 3561 3562 3563
 3 3563 3562 3564
 3 3562 3565 3564
 3 3563 3564 3566
 3 3567 3568 3569
 3 3569 3568 3570
 3 3568 3571 3570
 3 3569 3570 3572
 3 3573 3574 3575
 3 3575 3574 3576
 3 3574 3577 3576
 3 3575 3576 3578
 3 3579 3580 3581
 3 3581 3580 3582
 3 3580 3583 3582
 3 3581 3582 3584
 3 3585 3586 3587
 3 3586 3585 3588
 3 3588 3589 3586
 3 3590 3588 3585
 3 3591 3592 3593
 3 3592 3591 3594
 3 3594 3595 3592
 3 3596 3594 3591
 3 3597 3598 3599
 3 3598 3597 3600
 3 3600 3601 3598
 3 3602 3600 3597
 3 3603 3604 3605
 3 3604 3603 3606
 3 3606 3607 3604
 3 3608 3606 3603
 3 3609 3610 3611
 3 3611 3612 3609
 3 3609 3612 3613
 3 3610 3609 3614
 3 3612 3615 3613
 3 3614 3616 3610
 3 3617 3614 3609
 3 3609 3613 3617
 3 3618 3619 3620
 3 3620 3621 3618
 3 3618 3621 3622
 3 3619 3618 3623
 3 3621 3624 3622
 3 3623 3625 3619
 3 3626 3623 3618
 3 3618 3622 3626
 3 3627 3628 3629
 3 3627 3629 3630
 3 3630 3629 3631
 3 3629 3628 3632
 3 3629 3632 3633
 3 3629 3633 3631
 3 3628 3634 3632
 3 3630 3631 3635
 3 3636 3637 3638
 3 3638 3637 3639
 3 3639 3637 3640
 3 3637 3636 3641
 3 3639 3640 3642
 3 3641 3643 3637
 3 3637 3643 3640
 3 3644 3641 3636
 3 3645 3646 3647
 3 3645 3647 3648
 3 3648 3647 3649
 3 3647 3646 3650
 3 3647 3650 3651
 3 3647 3651 3649
 3 3646 3652 3650
 3 3648 3649 3653
 3 3654 3655 3656
 3 3656 3655 3657
 3 3657 3655 3658
 3 3655 3654 3659
 3 3657 3658 3660
 3 3659 3661 3655
 3 3655 3661 3658
 3 3662 3659 3654
 3 3663 3664 3665
 3 3663 3665 3666
 3 3666 3665 3667
 3 3665 3664 3668
 3 3665 3668 3669
 3 3665 3669 3667
 3 3664 3670 3668
 3 3666 3667 3671
 3 3672 3673 3674
 3 3674 3673 3675
 3 3675 3673 3676
 3 3673 3672 3677
 3 3675 3676 3678
 3 3677 3679 3673
 3 3673 3679 3676
 3 3680 3677 3672
 3 3681 3682 3683
 3 3682 3681 3684
 3 3684 3685 3682
 3 3686 3684 3681
 3 3687 3688 3689
 3 3688 3687 3690
 3 3690 3691 3688
 3 3692 3690 3687
 3 3693 3694 3695
 3 3695 3696 3693
 3 3693 3696 3697
 3 3694 3693 3698
 3 3696 3699 3697
 3 3698 3700 3694
 3 3701 3698 3693
 3 3693 3697 3701
 3 3702 3703 3704
 3 3704 3705 3702
 3 3702 3705 3706
 3 3703 3702 3707
 3 3705 3708 3706
 3 3707 3709 3703
 3 3710 3707 3702
 3 3702 3706 3710
 3 3711 3712 3713
 3 3713 3714 3711
 3 3711 3714 3715
 3 3712 3711 3716
 3 3714 3717 3715
 3 3716 3718 3712
 3 3719 3716 3711
 3 3711 3715 3719
 3 3720 3721 3722
 3 3722 3723 3720
 3 3720 3723 3724
 3 3721 3720 3725
 3 3723 3726 3724
 3 3725 3727 3721
 3 3728 3725 3720
 3 3720 3724 3728
 3 3729 3730 3731
 3 3731 3732 3729
 3 3729 3732 3733
 3 3730 3729 3734
 3 3732 3735 3733
 3 3734 3736 3730
 3 3737 3734 3729
 3 3729 3733 3737
 3 3738 3739 3740
 3 3740 3741 3738
 3 3738 3741 3742
 3 3739 3738 3743
 3 3741 3744 3742
 3 3743 3745 3739
 3 3746 3743 3738
 3 3738 3742 3746
 3 3747 3748 3749
 3 3749 3750 3747
 3 3747 3750 3751
 3 3748 3747 3752
 3 3750 3753 3751
 3 3752 3754 3748
 3 3755 3752 3747
 3 3747 3751 3755
 3 3756 3757 3758
 3 3758 3759 3756
 3 3756 3759 3760
 3 3757 3756 3761
 3 3759 3762 3760
 3 3761 3763 3757
 3 3764 3761 3756
 3 3756 3760 3764
 3 3765 3766 3767
 3 3767 3768 3765
 3 3765 3768 3769
 3 3766 3765 3770
 3 3768 3771 3769
 3 3770 3772 3766
 3 3773 3770 3765
 3 3765 3769 3773
 3 3774 3775 3776
 3 3776 3777 3774
 3 3774 3777 3778
 3 3775 3774 3779
 3 3777 3780 3778
 3 3779 3781 3775
 3 3782 3779 3774
 3 3774 3778 3782
 3 3783 3784 3785
 3 3785 3786 3783
 3 3783 3786 3787
 3 3784 3783 3788
 3 3786 3789 3787
 3 3788 3790 3784
 3 3791 3788 3783
 3 3783 3787 3791
 3 3792 3793 3794
 3 3794 3793 3795
 3 3793 3796 3795
 3 3794 3795 3797
 3 3798 3799 3800
 3 3800 3801 3798
 3 3798 3801 3802
 3 3799 3798 3803
 3 3801 3804 3802
 3 3803 3805 3799
 3 3806 3803 3798
 3 3798 3802 3806
 3 3807 3808 3809
 3 3809 3810 3807
 3 3807 3810 3811
 3 3808 3807 3812
 3 3810 3813 3811
 3 3812 3814 3808
 3 3815 3812 3807
 3 3807 3811 3815
 3 3816 3817 3818
 3 3818 3817 3819
 3 3817 3820 3819
 3 3818 3819 3821
 3 3822 3823 3824
 3 3824 3825 3822
 3 3822 3825 3826
 3 3823 3822 3827
 3 3825 3828 3826
 3 3827 3829 3823
 3 3830 3827 3822
 3 3822 3826 3830
 3 3831 3832 3833
 3 3833 3834 3831
 3 3831 3834 3835
 3 3832 3831 3836
 3 3834 3837 3835
 3 3836 3838 3832
 3 3839 3836 3831
 3 3831 3835 3839
 3 3840 3841 3842
 3 3842 3841 3843
 3 3841 3844 3843
 3 3842 3843 3845
 3 3846 3847 3848
 3 3848 3847 3849
 3 3847 3850 3849
 3 3848 3849 3851
 3 3852 3853 3854
 3 3854 3853 3855
 3 3853 3856 3855
 3 3854 3855 3857
 3 3858 3859 3860
 3 3860 3859 3861
 3 3859 3862 3861
 3 3860 3861 3863
 3 3864 3865 3866
 3 3866 3865 3867
 3 3865 3868 3867
 3 3866 3867 3869
 3 3870 3871 3872
 3 3872 3871 3873
 3 3871 3874 3873
 3 3872 3873 3875
 3 3876 3877 3878
 3 3878 3877 3879
 3 3877 3880 3879
 3 3878 3879 3881
 3 3882 3883 3884
 3 3884 3883 3885
 3 3883 3886 3885
 3 3884 3885 3887
 3 3888 3889 3890
 3 3890 3889 3891
 3 3889 3892 3891
 3 3890 3891 3893
 3 3894 3895 3896
 3 3896 3895 3897
 3 3895 3898 3897
 3 3896 3897 3899
 3 3900 3901 3902
 3 3902 3901 3903
 3 3901 3904 3903
 3 3902 3903 3905
 3 3906 3907 3908
 3 3908 3907 3909
 3 3907 3910 3909
 3 3908 3909 3911
 3 3912 3913 3914
 3 3914 3913 3915
 3 3913 3916 3915
 3 3914 3915 3917
 3 3918 3919 3920
 3 3920 3919 3921
 3 3919 3922 3921
 3 3920 3921 3923
 3 3924 3925 3926
 3 3926 3925 3927
 3 3925 3928 3927
 3 3926 3927 3929
 3 3930 3931 3932
 3 3932 3931 3933
 3 3931 3934 3933
 3 3932 3933 3935
 3 3936 3937 3938
 3 3938 3937 3939
 3 3937 3940 3939
 3 3938 3939 3941
 3 3942 3943 3944
 3 3944 3943 3945
 3 3943 3946 3945
 3 3944 3945 3947
 3 3948 3949 3950
 3 3950 3949 3951
 3 3949 3952 3951
 3 3950 3951 3953
 3 3954 3955 3956
 3 3956 3955 3957
 3 3955 3958 3957
 3 3956 3957 3959
 3 3960 3961 3962
 3 3962 3961 3963
 3 3961 3964 3963
 3 3962 3963 3965
 3 3966 3967 3968
 3 3967 3966 3969
 3 3969 3970 3967
 3 3971 3969 3966
 3 3972 3973 3974
 3 3973 3972 3975
 3 3975 3976 3973
 3 3977 3975 3972
 3 3978 3979 3980
 3 3979 3978 3981
 3 3981 3982 3979
 3 3983 3981 3978
 3 3984 3985 3986
 3 3985 3984 3987
 3 3987 3988 3985
 3 3989 3987 3984
 3 3990 3991 3992
 3 3991 3990 3993
 3 3993 3994 3991
 3 3995 3993 3990
 3 3996 3997 3998
 3 3997 3996 3999
 3 3999 4000 3997
 3 4001 3999 3996
 3 4002 4003 4004
 3 4004 4003 4005
 3 4003 4006 4005
 3 4004 4005 4007
 3 4008 4009 4010
 3 4010 4009 4011
 3 4009 4012 4011
 3 4010 4011 4013
 3 4014 4015 4016
 3 4016 4015 4017
 3 4015 4018 4017
 3 4016 4017 4019
 3 4020 4021 4022
 3 4022 4021 4023
 3 4021 4024 4023
 3 4022 4023 4025
 3 4026 4027 4028
 3 4028 4027 4029
 3 4027 4030 4029
 3 4028 4029 4031
 3 4032 4033 4034
 3 4034 4033 4035
 3 4033 4036 4035
 3 4034 4035 4037
 3 4038 4039 4040
 3 4040 4039 4041
 3 4039 4042 4041
 3 4040 4041 4043
 3 4044 4045 4046
 3 4046 4045 4047
 3 4045 4048 4047
 3 4046 4047 4049
 3 4050 4051 4052
 3 4052 4051 4053
 3 4051 4054 4053
 3 4052 4053 4055
 3 4056 4057 4058
 3 4058 4057 4059
 3 4057 4060 4059
 3 4058 4059 4061
 3 4062 4063 4064
 3 4064 4063 4065
 3 4063 4066 4065
 3 4064 4065 4067
 3 4068 4069 4070
 3 4070 4069 4071
 3 4069 4072 4071
 3 4070 4071 4073
 3 4074 4075 4076
 3 4076 4075 4077
 3 4075 4078 4077
 3 4076 4077 4079
 3 4080 4081 4082
 3 4082 4081 4083
 3 4081 4084 4083
 3 4082 4083 4085
 3 4086 4087 4088
 3 4088 4087 4089
 3 4087 4090 4089
 3 4088 4089 4091
 3 4092 4093 4094
 3 4094 4093 4095
 3 4093 4096 4095
 3 4094 4095 4097
 3 4098 4099 4100
 3 4100 4099 4101
 3 4099 4102 4101
 3 4100 4101 4103
 3 4104 4105 4106
 3 4106 4107 4104
 3 4104 4107 4108
 3 4105 4104 4109
 3 4107 4110 4108
 3 4109 4111 4105
 3 4112 4109 4104
 3 4104 4108 4112
 3 4113 4114 4115
 3 4113 4115 4116
 3 4116 4115 4117
 3 4115 4114 4118
 3 4115 4118 4119
 3 4115 4119 4117
 3 4114 4120 4118
 3 4116 4117 4121
 3 4122 4123 4124
 3 4124 4123 4125
 3 4125 4123 4126
 3 4123 4122 4127
 3 4125 4126 4128
 3 4127 4129 4123
 3 4123 4129 4126
 3 4130 4127 4122
 3 4131 4132 4133
 3 4131 4133 4134
 3 4134 4133 4135
 3 4133 4132 4136
 3 4133 4136 4137
 3 4133 4137 4135
 3 4132 4138 4136
 3 4134 4135 4139
 3 4140 4141 4142
 3 4142 4141 4143
 3 4143 4141 4144
 3 4141 4140 4145
 3 4143 4144 4146
 3 4145 4147 4141
 3 4141 4147 4144
 3 4148 4145 4140
 3 4149 4150 4151
 3 4149 4151 4152
 3 4152 4151 4153
 3 4151 4150 4154
 3 4151 4154 4155
 3 4151 4155 4153
 3 4150 4156 4154
 3 4152 4153 4157
 3 4158 4159 4160
 3 4160 4159 4161
 3 4161 4159 4162
 3 4159 4158 4163
 3 4161 4162 4164
 3 4163 4165 4159
 3 4159 4165 4162
 3 4166 4163 4158
 3 4167 4168 4169
 3 4167 4169 4170
 3 4170 4169 4171
 3 4169 4168 4172
 3 4169 4172 4173
 3 4169 4173 4171
 3 4168 4174 4172
 3 4170 4171 4175
 3 4176 4177 4178
 3 4178 4177 4179
 3 4179 4177 4180
 3 4177 4176 4181
 3 4179 4180 4182
 3 4181 4183 4177
 3 4177 4183 4180
 3 4184 4181 4176
 3 4185 4186 4187
 3 4185 4187 4188
 3 4188 4187 4189
 3 4187 4186 4190
 3 4187 4190 4191
 3 4187 4191 4189
 3 4186 4192 4190
 3 4188 4189 4193
 3 4194 4195 4196
 3 4196 4195 4197
 3 4197 4195 4198
 3 4195 4194 4199
 3 4197 4198 4200
 3 4199 4201 4195
 3 4195 4201 4198
 3 4202 4199 4194
 3 4203 4204 4205
 3 4203 4205 4206
 3 4206 4205 4207
 3 4205 4204 4208
 3 4205 4208 4209
 3 4205 4209 4207
 3 4204 4210 4208
 3 4206 4207 4211
 3 4212 4213 4214
 3 4214 4213 4215
 3 4215 4213 4216
 3 4213 4212 4217
 3 4215 4216 4218
 3 4217 4219 4213
 3 4213 4219 4216
 3 4220 4217 4212
 3 4221 4222 4223
 3 4223 4222 4224
 3 4222 4225 4224
 3 4223 4224 4226
 3 4227 4228 4229
 3 4229 4228 4230
 3 4228 4231 4230
 3 4229 4230 4232
 3 4233 4234 4235
 3 4235 4234 4236
 3 4234 4237 4236
 3 4235 4236 4238
 3 4239 4240 4241
 3 4241 4240 4242
 3 4240 4243 4242
 3 4241 4242 4244
 3 4245 4246 4247
 3 4247 4246 4248
 3 4246 4249 4248
 3 4247 4248 4250
 3 4251 4252 4253
 3 4253 4252 4254
 3 4252 4255 4254
 3 4253 4254 4256
 3 4257 4258 4259
 3 4259 4260 4257
 3 4257 4260 4261
 3 4258 4257 4262
 3 4260 4263 4261
 3 4262 4264 4258
 3 4265 4262 4257
 3 4257 4261 4265
 3 4266 4267 4268
 3 4268 4269 4266
 3 4266 4269 4270
 3 4267 4266 4271
 3 4269 4272 4270
 3 4271 4273 4267
 3 4274 4271 4266
 3 4266 4270 4274
 3 4275 4276 4277
 3 4277 4276 4278
 3 4276 4279 4278
 3 4277 4278 4280
 3 4281 4282 4283
 3 4283 4282 4284
 3 4282 4285 4284
 3 4283 4284 4286
 3 4287 4288 4289
 3 4289 4288 4290
 3 4288 4291 4290
 3 4289 4290 4292
 3 4293 4294 4295
 3 4295 4294 4296
 3 4294 4297 4296
 3 4295 4296 4298
 3 4299 4300 4301
 3 4301 4300 4302
 3 4300 4303 4302
 3 4301 4302 4304
 3 4305 4306 4307
 3 4307 4306 4308
 3 4306 4309 4308
 3 4307 4308 4310
 3 4311 4312 4313
 3 4313 4312 4314
 3 4312 4315 4314
 3 4313 4314 4316
 3 4317 4318 4319
 3 4319 4318 4320
 3 4318 4321 4320
 3 4319 4320 4322
 3 4323 4324 4325
 3 4325 4324 4326
 3 4324 4327 4326
 3 4325 4326 4328
 3 4329 4330 4331
 3 4331 4330 4332
 3 4330 4333 4332
 3 4331 4332 4334
 3 4335 4336 4337
 3 4337 4336 4338
 3 4336 4339 4338
 3 4337 4338 4340
 3 4341 4342 4343
 3 4343 4342 4344
 3 4342 4345 4344
 3 4343 4344 4346
 3 4347 4348 4349
 3 4349 4348 4350
 3 4348 4351 4350
 3 4349 4350 4352
 3 4353 4354 4355
 3 4355 4354 4356
 3 4354 4357 4356
 3 4355 4356 4358
 3 4359 4360 4361
 3 4361 4360 4362
 3 4360 4363 4362
 3 4361 4362 4364
 3 4365 4366 4367
 3 4367 4366 4368
 3 4366 4369 4368
 3 4367 4368 4370
 3 4371 4372 4373
 3 4373 4372 4374
 3 4372 4375 4374
 3 4373 4374 4376
 3 4377 4378 4379
 3 4379 4378 4380
 3 4378 4381 4380
 3 4379 4380 4382
 3 4383 4384 4385
 3 4385 4384 4386
 3 4384 4387 4386
 3 4385 4386 4388
 3 4389 4390 4391
 3 4391 4390 4392
 3 4390 4393 4392
 3 4391 4392 4394
 3 4395 4396 4397
 3 4397 4396 4398
 3 4396 4399 4398
 3 4397 4398 4400
 3 4401 4402 4403
 3 4403 4402 4404
 3 4402 4405 4404
 3 4403 4404 4406
 3 4407 4408 4409
 3 4409 4408 4410
 3 4408 4411 4410
 3 4409 4410 4412
 3 4413 4414 4415
 3 4415 4414 4416
 3 4414 4417 4416
 3 4415 4416 4418
 3 4419 4420 4421
 3 4421 4422 4419
 3 4419 4422 4423
 3 4420 4419 4424
 3 4422 4425 4423
 3 4424 4426 4420
 3 4427 4424 4419
 3 4419 4423 4427
 3 4428 4429 4430
 3 4430 4429 4431
 3 4429 4432 4431
 3 4430 4431 4433
 3 4434 4435 4436
 3 4436 4435 4437
 3 4435 4438 4437
 3 4436 4437 4439
 3 4440 4441 4442
 3 4442 4441 4443
 3 4441 4444 4443
 3 4442 4443 4445
 3 4446 4447 4448
 3 4448 4447 4449
 3 4447 4450 4449
 3 4448 4449 4451
 3 4452 4453 4454
 3 4454 4453 4455
 3 4453 4456 4455
 3 4454 4455 4457
 3 4458 4459 4460
 3 4460 4459 4461
 3 4459 4462 4461
 3 4460 4461 4463
 3 4464 4465 4466
 3 4466 4465 4467
 3 4465 4468 4467
 3 4466 4467 4469
 3 4470 4471 4472
 3 4472 4471 4473
 3 4471 4474 4473
 3 4472 4473 4475
 3 4476 4477 4478
 3 4478 4477 4479
 3 4477 4480 4479
 3 4478 4479 4481
 3 4482 4483 4484
 3 4484 4483 4485
 3 4483 4486 4485
 3 4484 4485 4487
 3 4488 4489 4490
 3 4490 4489 4491
 3 4489 4492 4491
 3 4490 4491 4493
 3 4494 4495 4496
 3 4496 4495 4497
 3 4495 4498 4497
 3 4496 4497 4499
 3 4500 4501 4502
 3 4502 4501 4503
 3 4501 4504 4503
 3 4502 4503 4505
 3 4506 4507 4508
 3 4508 4507 4509
 3 4507 4510 4509
 3 4508 4509 4511
 3 4512 4513 4514
 3 4514 4513 4515
 3 4513 4516 4515
 3 4514 4515 4517
 3 4518 4519 4520
 3 4520 4519 4521
 3 4519 4522 4521
 3 4520 4521 4523
 3 4524 4525 4526
 3 4526 4525 4527
 3 4525 4528 4527
 3 4526 4527 4529
 3 4530 4531 4532
 3 4532 4531 4533
 3 4531 4534 4533
 3 4532 4533 4535
 3 4536 4537 4538
 3 4538 4537 4539
 3 4537 4540 4539
 3 4538 4539 4541
 3 4542 4543 4544
 3 4544 4543 4545
 3 4543 4546 4545
 3 4544 4545 4547
 3 4548 4549 4550
 3 4550 4549 4551
 3 4549 4552 4551
 3 4550 4551 4553
 3 4554 4555 4556
 3 4556 4557 4554
 3 4554 4557 4558
 3 4555 4554 4559
 3 4557 4560 4558
 3 4559 4561 4555
 3 4562 4559 4554
 3 4554 4558 4562
 3 4563 4564 4565
 3 4565 4566 4563
 3 4563 4566 4567
 3 4564 4563 4568
 3 4566 4569 4567
 3 4568 4570 4564
 3 4571 4568 4563
 3 4563 4567 4571
 3 4572 4573 4574
 3 4574 4573 4575
 3 4573 4576 4575
 3 4574 4575 4577
 3 4578 4579 4580
 3 4580 4579 4581
 3 4579 4582 4581
 3 4580 4581 4583
 3 4584 4585 4586
 3 4586 4585 4587
 3 4585 4588 4587
 3 4586 4587 4589
 3 4590 4591 4592
 3 4592 4591 4593
 3 4591 4594 4593
 3 4592 4593 4595
 3 4596 4597 4598
 3 4598 4597 4599
 3 4597 4600 4599
 3 4598 4599 4601
 3 4602 4603 4604
 3 4604 4605 4602
 3 4602 4605 4606
 3 4603 4602 4607
 3 4605 4608 4606
 3 4607 4609 4603
 3 4610 4607 4602
 3 4602 4606 4610
 3 4611 4612 4613
 3 4613 4614 4611
 3 4611 4614 4615
 3 4612 4611 4616
 3 4614 4617 4615
 3 4616 4618 4612
 3 4619 4616 4611
 3 4611 4615 4619
 3 4620 4621 4622
 3 4622 4623 4620
 3 4620 4623 4624
 3 4621 4620 4625
 3 4623 4626 4624
 3 4625 4627 4621
 3 4628 4625 4620
 3 4620 4624 4628
 3 4629 4630 4631
 3 4631 4632 4629
 3 4629 4632 4633
 3 4630 4629 4634
 3 4632 4635 4633
 3 4634 4636 4630
 3 4637 4634 4629
 3 4629 4633 4637
 3 4638 4639 4640
 3 4640 4641 4638
 3 4638 4641 4642
 3 4639 4638 4643
 3 4641 4644 4642
 3 4643 4645 4639
 3 4646 4643 4638
 3 4638 4642 4646
 3 4647 4648 4649
 3 4649 4650 4647
 3 4647 4650 4651
 3 4648 4647 4652
 3 4650 4653 4651
 3 4652 4654 4648
 3 4655 4652 4647
 3 4647 4651 4655
 3 4656 4657 4658
 3 4658 4659 4656
 3 4656 4659 4660
 3 4657 4656 4661
 3 4659 4662 4660
 3 4661 4663 4657
 3 4664 4661 4656
 3 4656 4660 4664
 3 4665 4666 4667
 3 4667 4666 4668
 3 4666 4669 4668
 3 4667 4668 4670
 3 4671 4672 4673
 3 4673 4672 4674
 3 4672 4675 4674
 3 4673 4674 4676
 3 4677 4678 4679
 3 4679 4678 4680
 3 4678 4681 4680
 3 4679 4680 4682
 3 4683 4684 4685
 3 4685 4684 4686
 3 4684 4687 4686
 3 4685 4686 4688
 3 4689 4690 4691
 3 4691 4692 4689
 3 4689 4692 4693
 3 4690 4689 4694
 3 4692 4695 4693
 3 4694 4696 4690
 3 4697 4694 4689
 3 4689 4693 4697
 3 4698 4699 4700
 3 4700 4699 4701
 3 4699 4702 4701
 3 4700 4701 4703
 3 4704 4705 4706
 3 4706 4705 4707
 3 4705 4708 4707
 3 4706 4707 4709
 3 4710 4711 4712
 3 4712 4711 4713
 3 4711 4714 4713
 3 4712 4713 4715
 3 4716 4717 4718
 3 4718 4717 4719
 3 4717 4720 4719
 3 4718 4719 4721
 3 4722 4723 4724
 3 4724 4725 4722
 3 4722 4725 4726
 3 4723 4722 4727
 3 4725 4728 4726
 3 4727 4729 4723
 3 4730 4727 4722
 3 4722 4726 4730
 3 4731 4732 4733
 3 4733 4732 4734
 3 4732 4735 4734
 3 4733 4734 4736
 3 4737 4738 4739
 3 4739 4738 4740
 3 4738 4741 4740
 3 4739 4740 4742
 3 4743 4744 4745
 3 4745 4744 4746
 3 4744 4747 4746
 3 4745 4746 4748
 3 4749 4750 4751
 3 4751 4750 4752
 3 4750 4753 4752
 3 4751 4752 4754
 3 4755 4756 4757
 3 4757 4756 4758
 3 4756 4759 4758
 3 4757 4758 4760
 3 4761 4762 4763
 3 4763 4762 4764
 3 4762 4765 4764
 3 4763 4764 4766
 3 4767 4768 4769
 3 4769 4768 4770
 3 4768 4771 4770
 3 4769 4770 4772
 3 4773 4774 4775
 3 4774 4773 4776
 3 4776 4777 4774
 3 4778 4776 4773
 3 4779 4780 4781
 3 4780 4779 4782
 3 4782 4783 4780
 3 4784 4782 4779
 3 4785 4786 4787
 3 4787 4786 4788
 3 4786 4789 4788
 3 4787 4788 4790
 3 4791 4792 4793
 3 4793 4792 4794
 3 4792 4795 4794
 3 4793 4794 4796
 3 4797 4798 4799
 3 4799 4798 4800
 3 4798 4801 4800
 3 4799 4800 4802
 3 4803 4804 4805
 3 4805 4804 4806
 3 4804 4807 4806
 3 4805 4806 4808
 3 4809 4810 4811
 3 4811 4810 4812
 3 4810 4813 4812
 3 4811 4812 4814
 3 4815 4816 4817
 3 4817 4816 4818
 3 4816 4819 4818
 3 4817 4818 4820
 3 4821 4822 4823
 3 4823 4822 4824
 3 4822 4825 4824
 3 4823 4824 4826
 3 4827 4828 4829
 3 4829 4828 4830
 3 4828 4831 4830
 3 4829 4830 4832
 3 4833 4834 4835
 3 4835 4834 4836
 3 4834 4837 4836
 3 4835 4836 4838
 3 4839 4840 4841
 3 4841 4840 4842
 3 4840 4843 4842
 3 4841 4842 4844
 3 4845 4846 4847
 3 4847 4846 4848
 3 4846 4849 4848
 3 4847 4848 4850
 3 4851 4852 4853
 3 4853 4852 4854
 3 4852 4855 4854
 3 4853 4854 4856
 3 4857 4858 4859
 3 4859 4858 4860
 3 4858 4861 4860
 3 4859 4860 4862
 3 4863 4864 4865
 3 4865 4864 4866
 3 4864 4867 4866
 3 4865 4866 4868
 3 4869 4870 4871
 3 4870 4869 4872
 3 4872 4873 4870
 3 4874 4872 4869
 3 4875 4876 4877
 3 4877 4876 4878
 3 4876 4879 4878
 3 4877 4878 4880
 3 4881 4882 4883
 3 4883 4882 4884
 3 4882 4885 4884
 3 4883 4884 4886
 3 4887 4888 4889
 3 4889 4888 4890
 3 4888 4891 4890
 3 4889 4890 4892
 3 4893 4894 4895
 3 4895 4894 4896
 3 4894 4897 4896
 3 4895 4896 4898
 3 4899 4900 4901
 3 4901 4902 4899
 3 4899 4902 4903
 3 4900 4899 4904
 3 4902 4905 4903
 3 4904 4906 4900
 3 4907 4904 4899
 3 4899 4903 4907
 3 4908 4909 4910
 3 4910 4909 4911
 3 4909 4912 4911
 3 4910 4911 4913
 3 4914 4915 4916
 3 4916 4915 4917
 3 4915 4918 4917
 3 4916 4917 4919
 3 4920 4921 4922
 3 4922 4921 4923
 3 4921 4924 4923
 3 4922 4923 4925
 3 4926 4927 4928
 3 4927 4926 4929
 3 4929 4930 4927
 3 4931 4929 4926
 3 4932 4933 4934
 3 4934 4933 4935
 3 4933 4936 4935
 3 4934 4935 4937
 3 4938 4939 4940
 3 4940 4939 4941
 3 4939 4942 4941
 3 4940 4941 4943
 3 4944 4945 4946
 3 4946 4945 4947
 3 4945 4948 4947
 3 4946 4947 4949
 3 4950 4951 4952
 3 4952 4951 4953
 3 4951 4954 4953
 3 4952 4953 4955
 3 4956 4957 4958
 3 4958 4957 4959
 3 4957 4960 4959
 3 4958 4959 4961
 3 4962 4963 4964
 3 4964 4963 4965
 3 4963 4966 4965
 3 4964 4965 4967
 3 4968 4969 4970
 3 4970 4969 4971
 3 4969 4972 4971
 3 4970 4971 4973
 3 4974 4975 4976
 3 4976 4975 4977
 3 4975 4978 4977
 3 4976 4977 4979
 3 4980 4981 4982
 3 4982 4981 4983
 3 4981 4984 4983
 3 4982 4983 4985
 3 4986 4987 4988
 3 4988 4987 4989
 3 4987 4990 4989
 3 4988 4989 4991
 3 4992 4993 4994
 3 4993 4992 4995
 3 4995 4996 4993
 3 4997 4995 4992
 3 4998 4999 5000
 3 4998 5001 4999
 3 5000 4999 5002
 3 5003 4998 5000
 3 5004 5005 5006
 3 5005 5004 5007
 3 5007 5008 5005
 3 5009 5007 5004
 3 5010 5011 5012
 3 5012 5013 5010
 3 5010 5013 5014
 3 5011 5010 5015
 3 5013 5016 5014
 3 5015 5017 5011
 3 5018 5015 5010
 3 5010 5014 5018
 3 5019 5020 5021
 3 5021 5022 5019
 3 5019 5022 5023
 3 5020 5019 5024
 3 5022 5025 5023
 3 5024 5026 5020
 3 5027 5024 5019
 3 5019 5023 5027
 3 5028 5029 5030
 3 5030 5031 5028
 3 5028 5031 5032
 3 5029 5028 5033
 3 5031 5034 5032
 3 5033 5035 5029
 3 5036 5033 5028
 3 5028 5032 5036
 3 5037 5038 5039
 3 5039 5038 5040
 3 5038 5041 5040
 3 5039 5040 5042
 3 5043 5044 5045
 3 5045 5044 5046
 3 5044 5047 5046
 3 5045 5046 5048
 3 5049 5050 5051
 3 5051 5050 5052
 3 5050 5053 5052
 3 5051 5052 5054
 3 5055 5056 5057
 3 5057 5056 5058
 3 5056 5059 5058
 3 5057 5058 5060
 3 5061 5062 5063
 3 5063 5062 5064
 3 5062 5065 5064
 3 5063 5064 5066
 3 5067 5068 5069
 3 5069 5068 5070
 3 5068 5071 5070
 3 5069 5070 5072
 3 5073 5074 5075
 3 5075 5074 5076
 3 5074 5077 5076
 3 5075 5076 5078
 3 5079 5080 5081
 3 5081 5080 5082
 3 5080 5083 5082
 3 5081 5082 5084
 3 5085 5086 5087
 3 5086 5085 5088
 3 5088 5089 5086
 3 5090 5088 5085
 3 5091 5092 5093
 3 5092 5091 5094
 3 5094 5095 5092
 3 5096 5094 5091
 3 5097 5098 5099
 3 5098 5097 5100
 3 5100 5101 5098
 3 5102 5100 5097
 3 5103 5104 5105
 3 5105 5104 5106
 3 5104 5107 5106
 3 5105 5106 5108
 3 5109 5110 5111
 3 5111 5110 5112
 3 5110 5113 5112
 3 5111 5112 5114
 3 5115 5116 5117
 3 5117 5116 5118
 3 5116 5119 5118
 3 5117 5118 5120
 3 5121 5122 5123
 3 5123 5122 5124
 3 5122 5125 5124
 3 5123 5124 5126
 3 5127 5128 5129
 3 5129 5128 5130
 3 5128 5131 5130
 3 5129 5130 5132
 3 5133 5134 5135
 3 5135 5134 5136
 3 5134 5137 5136
 3 5135 5136 5138
 3 5139 5140 5141
 3 5141 5142 5139
 3 5139 5142 5143
 3 5140 5139 5144
 3 5142 5145 5143
 3 5144 5146 5140
 3 5147 5144 5139
 3 5139 5143 5147
 3 5148 5149 5150
 3 5150 5151 5148
 3 5148 5151 5152
 3 5149 5148 5153
 3 5151 5154 5152
 3 5153 5155 5149
 3 5156 5153 5148
 3 5148 5152 5156
 3 5157 5158 5159
 3 5159 5158 5160
 3 5158 5161 5160
 3 5159 5160 5162
 3 5163 5164 5165
 3 5165 5166 5163
 3 5163 5166 5167
 3 5164 5163 5168
 3 5166 5169 5167
 3 5168 5170 5164
 3 5171 5168 5163
 3 5163 5167 5171
 3 5172 5173 5174
 3 5174 5173 5175
 3 5173 5176 5175
 3 5174 5175 5177
 3 5178 5179 5180
 3 5180 5179 5181
 3 5179 5182 5181
 3 5180 5181 5183
 3 5184 5185 5186
 3 5186 5185 5187
 3 5185 5188 5187
 3 5186 5187 5189
 3 5190 5191 5192
 3 5192 5191 5193
 3 5191 5194 5193
 3 5192 5193 5195
 3 5196 5197 5198
 3 5198 5197 5199
 3 5197 5200 5199
 3 5198 5199 5201
 3 5202 5203 5204
 3 5204 5203 5205
 3 5203 5206 5205
 3 5204 5205 5207
 3 5208 5209 5210
 3 5210 5209 5211
 3 5209 5212 5211
 3 5210 5211 5213
 3 5214 5215 5216
 3 5216 5217 5214
 3 5214 5217 5218
 3 5215 5214 5219
 3 5217 5220 5218
 3 5219 5221 5215
 3 5222 5219 5214
 3 5214 5218 5222
 3 5223 5224 5225
 3 5225 5226 5223
 3 5223 5226 5227
 3 5224 5223 5228
 3 5226 5229 5227
 3 5228 5230 5224
 3 5231 5228 5223
 3 5223 5227 5231
 3 5232 5233 5234
 3 5233 5232 5235
 3 5235 5236 5233
 3 5237 5235 5232
 3 5238 5239 5240
 3 5240 5239 5241
 3 5239 5242 5241
 3 5240 5241 5243
 3 5244 5245 5246
 3 5246 5245 5247
 3 5245 5248 5247
 3 5246 5247 5249
 3 5250 5251 5252
 3 5252 5251 5253
 3 5251 5254 5253
 3 5252 5253 5255
 3 5256 5257 5258
 3 5258 5257 5259
 3 5257 5260 5259
 3 5258 5259 5261
 3 5262 5263 5264
 3 5263 5262 5265
 3 5265 5266 5263
 3 5267 5265 5262
 3 5268 5269 5270
 3 5270 5269 5271
 3 5269 5272 5271
 3 5270 5271 5273
 3 5274 5275 5276
 3 5276 5275 5277
 3 5275 5278 5277
 3 5276 5277 5279
 3 5280 5281 5282
 3 5282 5281 5283
 3 5281 5284 5283
 3 5282 5283 5285
 3 5286 5287 5288
 3 5288 5287 5289
 3 5287 5290 5289
 3 5288 5289 5291
 3 5292 5293 5294
 3 5294 5293 5295
 3 5293 5296 5295
 3 5294 5295 5297
 3 5298 5299 5300
 3 5300 5299 5301
 3 5299 5302 5301
 3 5300 5301 5303
 3 5304 5305 5306
 3 5306 5305 5307
 3 5305 5308 5307
 3 5306 5307 5309
 3 5310 5311 5312
 3 5312 5311 5313
 3 5311 5314 5313
 3 5312 5313 5315
 3 5316 5317 5318
 3 5318 5317 5319
 3 5317 5320 5319
 3 5318 5319 5321
 3 5322 5323 5324
 3 5324 5325 5322
 3 5322 5325 5326
 3 5323 5322 5327
 3 5325 5328 5326
 3 5327 5329 5323
 3 5330 5327 5322
 3 5322 5326 5330
 3 5331 5332 5333
 3 5333 5334 5331
 3 5331 5334 5335
 3 5332 5331 5336
 3 5334 5337 5335
 3 5336 5338 5332
 3 5339 5336 5331
 3 5331 5335 5339
 3 5340 5341 5342
 3 5342 5343 5340
 3 5340 5343 5344
 3 5341 5340 5345
 3 5343 5346 5344
 3 5345 5347 5341
 3 5348 5345 5340
 3 5340 5344 5348
 3 5349 5350 5351
 3 5351 5350 5352
 3 5350 5353 5352
 3 5351 5352 5354
 3 5355 5356 5357
 3 5357 5356 5358
 3 5356 5359 5358
 3 5357 5358 5360
 3 5361 5362 5363
 3 5363 5362 5364
 3 5362 5365 5364
 3 5363 5364 5366
 3 5367 5368 5369
 3 5369 5368 5370
 3 5368 5371 5370
 3 5369 5370 5372
 3 5373 5374 5375
 3 5375 5374 5376
 3 5374 5377 5376
 3 5375 5376 5378
 3 5379 5380 5381
 3 5381 5380 5382
 3 5380 5383 5382
 3 5381 5382 5384
 3 5385 5386 5387
 3 5387 5386 5388
 3 5386 5389 5388
 3 5387 5388 5390
 3 5391 5392 5393
 3 5393 5392 5394
 3 5392 5395 5394
 3 5393 5394 5396
 3 5397 5398 5399
 3 5399 5398 5400
 3 5398 5401 5400
 3 5399 5400 5402
 3 5403 5404 5405
 3 5403 5406 5404
 3 5405 5404 5407
 3 5408 5403 5405
 3 5409 5410 5411
 3 5411 5410 5412
 3 5410 5413 5412
 3 5411 5412 5414
 3 5415 5416 5417
 3 5417 5416 5418
 3 5416 5419 5418
 3 5417 5418 5420
 3 5421 5422 5423
 3 5422 5421 5424
 3 5424 5425 5422
 3 5426 5424 5421
 3 5427 5428 5429
 3 5428 5427 5430
 3 5430 5431 5428
 3 5432 5430 5427
 3 5433 5434 5435
 3 5435 5434 5436
 3 5434 5437 5436
 3 5435 5436 5438
 3 5439 5440 5441
 3 5441 5440 5442
 3 5440 5443 5442
 3 5441 5442 5444
 3 5445 5446 5447
 3 5447 5446 5448
 3 5446 5449 5448
 3 5447 5448 5450
 3 5451 5452 5453
 3 5453 5452 5454
 3 5452 5455 5454
 3 5453 5454 5456
 3 5457 5458 5459
 3 5459 5458 5460
 3 5458 5461 5460
 3 5459 5460 5462
 3 5463 5464 5465
 3 5465 5464 5466
 3 5464 5467 5466
 3 5465 5466 5468
 3 5469 5470 5471
 3 5470 5469 5472
 3 5472 5473 5470
 3 5474 5472 5469
 3 5475 5476 5477
 3 5477 5476 5478
 3 5476 5479 5478
 3 5477 5478 5480
 3 5481 5482 5483
 3 5483 5484 5481
 3 5481 5484 5485
 3 5482 5481 5486
 3 5484 5487 5485
 3 5486 5488 5482
 3 5489 5486 5481
 3 5481 5485 5489
 3 5490 5491 5492
 3 5492 5491 5493
 3 5491 5494 5493
 3 5492 5493 5495
 3 5496 5497 5498
 3 5498 5497 5499
 3 5497 5500 5499
 3 5498 5499 5501
 3 5502 5503 5504
 3 5503 5502 5505
 3 5505 5506 5503
 3 5507 5505 5502
 3 5508 5509 5510
 3 5510 5509 5511
 3 5510 5511 5512
 3 5509 5513 5511
 3 5514 5515 5516
 3 5516 5515 5517
 3 5515 5518 5517
 3 5516 5517 5519
 3 5520 5521 5522
 3 5522 5521 5523
 3 5521 5524 5523
 3 5522 5523 5525
 3 5526 5527 5528
 3 5528 5527 5529
 3 5527 5530 5529
 3 5528 5529 5531
 3 5532 5533 5534
 3 5534 5533 5535
 3 5533 5536 5535
 3 5534 5535 5537
 3 5538 5539 5540
 3 5540 5539 5541
 3 5539 5542 5541
 3 5540 5541 5543
 3 5544 5545 5546
 3 5546 5545 5547
 3 5545 5548 5547
 3 5546 5547 5549
 3 5550 5551 5552
 3 5552 5551 5553
 3 5551 5554 5553
 3 5552 5553 5555
 3 5556 5557 5558
 3 5558 5557 5559
 3 5557 5560 5559
 3 5558 5559 5561
 3 5562 5563 5564
 3 5564 5563 5565
 3 5563 5566 5565
 3 5564 5565 5567
 3 5568 5569 5570
 3 5570 5569 5571
 3 5569 5572 5571
 3 5570 5571 5573
 3 5574 5575 5576
 3 5576 5575 5577
 3 5575 5578 5577
 3 5576 5577 5579
 3 5580 5581 5582
 3 5582 5581 5583
 3 5581 5584 5583
 3 5582 5583 5585
 3 5586 5587 5588
 3 5588 5587 5589
 3 5587 5590 5589
 3 5588 5589 5591
 3 5592 5593 5594
 3 5594 5593 5595
 3 5593 5596 5595
 3 5594 5595 5597
 3 5598 5599 5600
 3 5600 5599 5601
 3 5599 5602 5601
 3 5600 5601 5603
 3 5604 5605 5606
 3 5606 5605 5607
 3 5605 5608 5607
 3 5606 5607 5609
 3 5610 5611 5612
 3 5612 5611 5613
 3 5611 5614 5613
 3 5612 5613 5615
 3 5616 5617 5618
 3 5618 5617 5619
 3 5617 5620 5619
 3 5618 5619 5621
 3 5622 5623 5624
 3 5624 5623 5625
 3 5623 5626 5625
 3 5624 5625 5627
 3 5628 5629 5630
 3 5630 5629 5631
 3 5629 5632 5631
 3 5630 5631 5633
 3 5634 5635 5636
 3 5636 5635 5637
 3 5635 5638 5637
 3 5636 5637 5639
 3 5640 5641 5642
 3 5642 5641 5643
 3 5641 5644 5643
 3 5642 5643 5645
 3 5646 5647 5648
 3 5648 5647 5649
 3 5647 5650 5649
 3 5648 5649 5651
 3 5652 5653 5654
 3 5654 5653 5655
 3 5653 5656 5655
 3 5654 5655 5657
 3 5658 5659 5660
 3 5660 5659 5661
 3 5659 5662 5661
 3 5660 5661 5663
 3 5664 5665 5666
 3 5666 5665 5667
 3 5665 5668 5667
 3 5666 5667 5669
 3 5670 5671 5672
 3 5672 5671 5673
 3 5671 5674 5673
 3 5672 5673 5675
 3 5676 5677 5678
 3 5678 5677 5679
 3 5677 5680 5679
 3 5678 5679 5681
 3 5682 5683 5684
 3 5684 5683 5685
 3 5683 5686 5685
 3 5684 5685 5687
 3 5688 5689 5690
 3 5690 5689 5691
 3 5689 5692 5691
 3 5690 5691 5693
 3 5694 5695 5696
 3 5696 5695 5697
 3 5695 5698 5697
 3 5696 5697 5699
 3 5700 5701 5702
 3 5702 5701 5703
 3 5701 5704 5703
 3 5702 5703 5705
 3 5706 5707 5708
 3 5708 5707 5709
 3 5707 5710 5709
 3 5708 5709 5711
 3 5712 5713 5714
 3 5714 5713 5715
 3 5713 5716 5715
 3 5714 5715 5717
 3 5718 5719 5720
 3 5720 5719 5721
 3 5719 5722 5721
 3 5720 5721 5723
 3 5724 5725 5726
 3 5726 5725 5727
 3 5725 5728 5727
 3 5726 5727 5729
 3 5730 5731 5732
 3 5732 5731 5733
 3 5731 5734 5733
 3 5732 5733 5735
 3 5736 5737 5738
 3 5738 5737 5739
 3 5737 5740 5739
 3 5738 5739 5741
 3 5742 5743 5744
 3 5744 5743 5745
 3 5743 5746 5745
 3 5744 5745 5747
 3 5748 5749 5750
 3 5750 5749 5751
 3 5749 5752 5751
 3 5750 5751 5753
 3 5754 5755 5756
 3 5756 5755 5757
 3 5755 5758 5757
 3 5756 5757 5759
 3 5760 5761 5762
 3 5762 5761 5763
 3 5761 5764 5763
 3 5762 5763 5765
 3 5766 5767 5768
 3 5768 5767 5769
 3 5767 5770 5769
 3 5768 5769 5771
 3 5772 5773 5774
 3 5774 5773 5775
 3 5773 5776 5775
 3 5774 5775 5777
 3 5778 5779 5780
 3 5780 5779 5781
 3 5779 5782 5781
 3 5780 5781 5783
 3 5784 5785 5786
 3 5784 5787 5785
 3 5786 5785 5788
 3 5789 5784 5786
 3 5790 5791 5792
 3 5792 5791 5793
 3 5791 5794 5793
 3 5792 5793 5795
 3 5796 5797 5798
 3 5798 5797 5799
 3 5797 5800 5799
 3 5798 5799 5801
 3 5802 5803 5804
 3 5804 5805 5802
 3 5802 5805 5806
 3 5803 5802 5807
 3 5805 5808 5806
 3 5807 5809 5803
 3 5810 5807 5802
 3 5802 5806 5810
 3 5811 5812 5813
 3 5813 5814 5811
 3 5811 5814 5815
 3 5812 5811 5816
 3 5814 5817 5815
 3 5816 5818 5812
 3 5819 5816 5811
 3 5811 5815 5819
 3 5820 5821 5822
 3 5822 5821 5823
 3 5821 5824 5823
 3 5822 5823 5825
 3 5826 5827 5828
 3 5828 5827 5829
 3 5827 5830 5829
 3 5828 5829 5831
 3 5832 5833 5834
 3 5834 5833 5835
 3 5833 5836 5835
 3 5834 5835 5837
 3 5838 5839 5840
 3 5840 5839 5841
 3 5839 5842 5841
 3 5840 5841 5843
 3 5844 5845 5846
 3 5846 5847 5844
 3 5844 5847 5848
 3 5845 5844 5849
 3 5847 5850 5848
 3 5849 5851 5845
 3 5852 5849 5844
 3 5844 5848 5852
 3 5853 5854 5855
 3 5855 5856 5853
 3 5853 5856 5857
 3 5854 5853 5858
 3 5856 5859 5857
 3 5858 5860 5854
 3 5861 5858 5853
 3 5853 5857 5861
 3 5862 5863 5864
 3 5864 5865 5862
 3 5862 5865 5866
 3 5863 5862 5867
 3 5865 5868 5866
 3 5867 5869 5863
 3 5870 5867 5862
 3 5862 5866 5870
 3 5871 5872 5873
 3 5873 5874 5871
 3 5871 5874 5875
 3 5872 5871 5876
 3 5874 5877 5875
 3 5876 5878 5872
 3 5879 5876 5871
 3 5871 5875 5879
 3 5880 5881 5882
 3 5882 5881 5883
 3 5881 5884 5883
 3 5882 5883 5885
 3 5886 5887 5888
 3 5888 5887 5889
 3 5887 5890 5889
 3 5888 5889 5891
 3 5892 5893 5894
 3 5894 5893 5895
 3 5893 5896 5895
 3 5894 5895 5897
 3 5898 5899 5900
 3 5900 5899 5901
 3 5899 5902 5901
 3 5900 5901 5903
 3 5904 5905 5906
 3 5906 5905 5907
 3 5905 5908 5907
 3 5906 5907 5909
 3 5910 5911 5912
 3 5912 5911 5913
 3 5911 5914 5913
 3 5912 5913 5915
 3 5916 5917 5918
 3 5918 5917 5919
 3 5917 5920 5919
 3 5918 5919 5921
 3 5922 5923 5924
 3 5924 5923 5925
 3 5923 5926 5925
 3 5924 5925 5927
 3 5928 5929 5930
 3 5930 5929 5931
 3 5929 5932 5931
 3 5930 5931 5933
 3 5934 5935 5936
 3 5936 5935 5937
 3 5935 5938 5937
 3 5936 5937 5939
 3 5940 5941 5942
 3 5942 5941 5943
 3 5941 5944 5943
 3 5942 5943 5945
 3 5946 5947 5948
 3 5948 5947 5949
 3 5947 5950 5949
 3 5948 5949 5951
 3 5952 5953 5954
 3 5954 5953 5955
 3 5953 5956 5955
 3 5954 5955 5957
 3 5958 5959 5960
 3 5960 5959 5961
 3 5959 5962 5961
 3 5960 5961 5963
 3 5964 5965 5966
 3 5966 5965 5967
 3 5965 5968 5967
 3 5966 5967 5969
 3 5970 5971 5972
 3 5972 5971 5973
 3 5971 5974 5973
 3 5972 5973 5975
 3 5976 5977 5978
 3 5978 5977 5979
 3 5977 5980 5979
 3 5978 5979 5981
 3 5982 5983 5984
 3 5984 5983 5985
 3 5983 5986 5985
 3 5984 5985 5987
 3 5988 5989 5990
 3 5990 5989 5991
 3 5989 5992 5991
 3 5990 5991 5993
 3 5994 5995 5996
 3 5996 5995 5997
 3 5996 5997 5998
 3 5995 5999 5997
 3 6000 6001 6002
 3 6001 6000 6003
 3 6003 6004 6001
 3 6005 6003 6000
 3 6006 6007 6008
 3 6008 6007 6009
 3 6007 6010 6009
 3 6008 6009 6011
 3 6012 6013 6014
 3 6014 6013 6015
 3 6013 6016 6015
 3 6014 6015 6017
 3 6018 6019 6020
 3 6020 6019 6021
 3 6019 6022 6021
 3 6020 6021 6023
 3 6024 6025 6026
 3 6026 6025 6027
 3 6025 6028 6027
 3 6026 6027 6029
 3 6030 6031 6032
 3 6032 6031 6033
 3 6031 6034 6033
 3 6032 6033 6035
 3 6036 6037 6038
 3 6038 6037 6039
 3 6037 6040 6039
 3 6038 6039 6041
 3 6042 6043 6044
 3 6044 6043 6045
 3 6043 6046 6045
 3 6044 6045 6047
 3 6048 6049 6050
 3 6050 6049 6051
 3 6049 6052 6051
 3 6050 6051 6053
 3 6054 6055 6056
 3 6056 6055 6057
 3 6055 6058 6057
 3 6056 6057 6059
 3 6060 6061 6062
 3 6062 6061 6063
 3 6061 6064 6063
 3 6062 6063 6065
 3 6066 6067 6068
 3 6068 6067 6069
 3 6067 6070 6069
 3 6068 6069 6071
 3 6072 6073 6074
 3 6074 6073 6075
 3 6073 6076 6075
 3 6074 6075 6077
 3 6078 6079 6080
 3 6080 6079 6081
 3 6079 6082 6081
 3 6080 6081 6083
 3 6084 6085 6086
 3 6086 6085 6087
 3 6085 6088 6087
 3 6086 6087 6089
 3 6090 6091 6092
 3 6092 6091 6093
 3 6092 6093 6094
 3 6091 6095 6093
 3 6096 6097 6098
 3 6098 6097 6099
 3 6098 6099 6100
 3 6097 6101 6099
 3 6102 6103 6104
 3 6104 6103 6105
 3 6104 6105 6106
 3 6103 6107 6105
 3 6108 6109 6110
 3 6110 6109 6111
 3 6109 6112 6111
 3 6110 6111 6113
 3 6114 6115 6116
 3 6116 6115 6117
 3 6115 6118 6117
 3 6116 6117 6119
 3 6120 6121 6122
 3 6122 6121 6123
 3 6121 6124 6123
 3 6122 6123 6125
 3 6126 6127 6128
 3 6128 6127 6129
 3 6127 6130 6129
 3 6128 6129 6131
 3 6132 6133 6134
 3 6134 6133 6135
 3 6133 6136 6135
 3 6134 6135 6137
 3 6138 6139 6140
 3 6140 6139 6141
 3 6139 6142 6141
 3 6140 6141 6143
 3 6144 6145 6146
 3 6146 6147 6144
 3 6144 6147 6148
 3 6145 6144 6149
 3 6147 6150 6148
 3 6149 6151 6145
 3 6152 6149 6144
 3 6144 6148 6152
 3 6153 6154 6155
 3 6155 6156 6153
 3 6153 6156 6157
 3 6154 6153 6158
 3 6156 6159 6157
 3 6158 6160 6154
 3 6161 6158 6153
 3 6153 6157 6161
 3 6162 6163 6164
 3 6164 6163 6165
 3 6163 6166 6165
 3 6164 6165 6167
 3 6168 6169 6170
 3 6170 6169 6171
 3 6169 6172 6171
 3 6170 6171 6173
 3 6174 6175 6176
 3 6176 6175 6177
 3 6175 6178 6177
 3 6176 6177 6179
 3 6180 6181 6182
 3 6182 6181 6183
 3 6181 6184 6183
 3 6182 6183 6185
 3 6186 6187 6188
 3 6188 6187 6189
 3 6187 6190 6189
 3 6188 6189 6191
 3 6192 6193 6194
 3 6194 6193 6195
 3 6193 6196 6195
 3 6194 6195 6197
 3 6198 6199 6200
 3 6198 6201 6199
 3 6200 6199 6202
 3 6203 6198 6200
 3 6204 6205 6206
 3 6206 6205 6207
 3 6205 6208 6207
 3 6206 6207 6209
 3 6210 6211 6212
 3 6212 6211 6213
 3 6211 6214 6213
 3 6212 6213 6215
 3 6216 6217 6218
 3 6218 6217 6219
 3 6217 6220 6219
 3 6218 6219 6221
 3 6222 6223 6224
 3 6224 6223 6225
 3 6223 6226 6225
 3 6224 6225 6227
 3 6228 6229 6230
 3 6230 6229 6231
 3 6229 6232 6231
 3 6230 6231 6233
 3 6234 6235 6236
 3 6236 6235 6237
 3 6235 6238 6237
 3 6236 6237 6239
 3 6240 6241 6242
 3 6242 6243 6240
 3 6240 6243 6244
 3 6241 6240 6245
 3 6243 6246 6244
 3 6245 6247 6241
 3 6248 6245 6240
 3 6240 6244 6248
 3 6249 6250 6251
 3 6251 6250 6252
 3 6250 6253 6252
 3 6251 6252 6254
 3 6255 6256 6257
 3 6257 6258 6255
 3 6255 6258 6259
 3 6256 6255 6260
 3 6258 6261 6259
 3 6260 6262 6256
 3 6263 6260 6255
 3 6255 6259 6263
 3 6264 6265 6266
 3 6266 6265 6267
 3 6265 6268 6267
 3 6266 6267 6269
 3 6270 6271 6272
 3 6272 6271 6273
 3 6271 6274 6273
 3 6272 6273 6275
 3 6276 6277 6278
 3 6278 6277 6279
 3 6277 6280 6279
 3 6278 6279 6281
 3 6282 6283 6284
 3 6284 6283 6285
 3 6283 6286 6285
 3 6284 6285 6287
 3 6288 6289 6290
 3 6290 6289 6291
 3 6289 6292 6291
 3 6290 6291 6293
 3 6294 6295 6296
 3 6296 6297 6294
 3 6294 6297 6298
 3 6295 6294 6299
 3 6297 6300 6298
 3 6299 6301 6295
 3 6302 6299 6294
 3 6294 6298 6302
 3 6303 6304 6305
 3 6303 6305 6306
 3 6306 6305 6307
 3 6305 6304 6308
 3 6305 6308 6309
 3 6305 6309 6307
 3 6304 6310 6308
 3 6306 6307 6311
 3 6312 6313 6314
 3 6314 6313 6315
 3 6313 6316 6315
 3 6314 6315 6317
 3 6318 6319 6320
 3 6319 6318 6321
 3 6321 6322 6319
 3 6323 6321 6318
 3 6324 6325 6326
 3 6326 6325 6327
 3 6325 6328 6327
 3 6326 6327 6329
 3 6330 6331 6332
 3 6332 6331 6333
 3 6331 6334 6333
 3 6332 6333 6335
 3 6336 6337 6338
 3 6338 6337 6339
 3 6337 6340 6339
 3 6338 6339 6341
 3 6342 6343 6344
 3 6344 6343 6345
 3 6343 6346 6345
 3 6344 6345 6347
 3 6348 6349 6350
 3 6350 6349 6351
 3 6349 6352 6351
 3 6350 6351 6353
 3 6354 6355 6356
 3 6356 6355 6357
 3 6355 6358 6357
 3 6356 6357 6359
 3 6360 6361 6362
 3 6362 6361 6363
 3 6361 6364 6363
 3 6362 6363 6365
 3 6366 6367 6368
 3 6368 6367 6369
 3 6367 6370 6369
 3 6368 6369 6371
 3 6372 6373 6374
 3 6374 6373 6375
 3 6374 6375 6376
 3 6373 6377 6375
 3 6378 6379 6380
 3 6380 6379 6381
 3 6379 6382 6381
 3 6380 6381 6383
 3 6384 6385 6386
 3 6386 6385 6387
 3 6385 6388 6387
 3 6386 6387 6389
 3 6390 6391 6392
 3 6392 6391 6393
 3 6391 6394 6393
 3 6392 6393 6395
 3 6396 6397 6398
 3 6398 6399 6396
 3 6396 6399 6400
 3 6397 6396 6401
 3 6399 6402 6400
 3 6401 6403 6397
 3 6404 6401 6396
 3 6396 6400 6404
 3 6405 6406 6407
 3 6407 6408 6405
 3 6405 6408 6409
 3 6406 6405 6410
 3 6408 6411 6409
 3 6410 6412 6406
 3 6413 6410 6405
 3 6405 6409 6413
 3 6414 6415 6416
 3 6416 6415 6417
 3 6415 6418 6417
 3 6416 6417 6419
 3 6420 6421 6422
 3 6422 6421 6423
 3 6421 6424 6423
 3 6422 6423 6425
 3 6426 6427 6428
 3 6428 6427 6429
 3 6427 6430 6429
 3 6428 6429 6431
 3 6432 6433 6434
 3 6434 6433 6435
 3 6433 6436 6435
 3 6434 6435 6437
 3 6438 6439 6440
 3 6440 6439 6441
 3 6439 6442 6441
 3 6440 6441 6443
 3 6444 6445 6446
 3 6446 6445 6447
 3 6445 6448 6447
 3 6446 6447 6449
 3 6450 6451 6452
 3 6452 6451 6453
 3 6451 6454 6453
 3 6452 6453 6455
 3 6456 6457 6458
 3 6458 6457 6459
 3 6457 6460 6459
 3 6458 6459 6461
 3 6462 6463 6464
 3 6464 6463 6465
 3 6463 6466 6465
 3 6464 6465 6467
 3 6468 6469 6470
 3 6470 6469 6471
 3 6469 6472 6471
 3 6470 6471 6473
 3 6474 6475 6476
 3 6476 6475 6477
 3 6475 6478 6477
 3 6476 6477 6479
 3 6480 6481 6482
 3 6482 6481 6483
 3 6481 6484 6483
 3 6482 6483 6485
 3 6486 6487 6488
 3 6488 6487 6489
 3 6487 6490 6489
 3 6488 6489 6491
 3 6492 6493 6494
 3 6494 6493 6495
 3 6493 6496 6495
 3 6494 6495 6497
 3 6498 6499 6500
 3 6500 6499 6501
 3 6499 6502 6501
 3 6500 6501 6503
 3 6504 6505 6506
 3 6506 6505 6507
 3 6505 6508 6507
 3 6506 6507 6509
 3 6510 6511 6512
 3 6512 6511 6513
 3 6511 6514 6513
 3 6512 6513 6515
 3 6516 6517 6518
 3 6518 6517 6519
 3 6517 6520 6519
 3 6518 6519 6521
 3 6522 6523 6524
 3 6524 6523 6525
 3 6523 6526 6525
 3 6524 6525 6527
 3 6528 6529 6530
 3 6530 6529 6531
 3 6529 6532 6531
 3 6530 6531 6533
 3 6534 6535 6536
 3 6536 6535 6537
 3 6535 6538 6537
 3 6536 6537 6539
 3 6540 6541 6542
 3 6542 6541 6543
 3 6541 6544 6543
 3 6542 6543 6545
 3 6546 6547 6548
 3 6548 6547 6549
 3 6547 6550 6549
 3 6548 6549 6551
 3 6552 6553 6554
 3 6554 6555 6552
 3 6552 6555 6556
 3 6553 6552 6557
 3 6555 6558 6556
 3 6557 6559 6553
 3 6560 6557 6552
 3 6552 6556 6560
 3 6561 6562 6563
 3 6563 6562 6564
 3 6562 6565 6564
 3 6563 6564 6566
 3 6567 6568 6569
 3 6567 6569 6570
 3 6570 6569 6571
 3 6569 6568 6572
 3 6569 6572 6573
 3 6569 6573 6571
 3 6568 6574 6572
 3 6570 6571 6575
 3 6576 6577 6578
 3 6578 6577 6579
 3 6578 6579 6580
 3 6577 6581 6579
 3 6582 6583 6584
 3 6584 6583 6585
 3 6583 6586 6585
 3 6584 6585 6587
 3 6588 6589 6590
 3 6590 6589 6591
 3 6589 6592 6591
 3 6590 6591 6593
 3 6594 6595 6596
 3 6596 6595 6597
 3 6595 6598 6597
 3 6596 6597 6599
 3 6600 6601 6602
 3 6602 6603 6600
 3 6600 6603 6604
 3 6601 6600 6605
 3 6603 6606 6604
 3 6605 6607 6601
 3 6608 6605 6600
 3 6600 6604 6608
 3 6609 6610 6611
 3 6611 6612 6609
 3 6609 6612 6613
 3 6610 6609 6614
 3 6612 6615 6613
 3 6614 6616 6610
 3 6617 6614 6609
 3 6609 6613 6617
 3 6618 6619 6620
 3 6620 6621 6618
 3 6618 6621 6622
 3 6619 6618 6623
 3 6621 6624 6622
 3 6623 6625 6619
 3 6626 6623 6618
 3 6618 6622 6626
 3 6627 6628 6629
 3 6629 6628 6630
 3 6629 6630 6631
 3 6628 6632 6630
 3 6633 6634 6635
 3 6635 6634 6636
 3 6634 6637 6636
 3 6635 6636 6638
 3 6639 6640 6641
 3 6641 6640 6642
 3 6640 6643 6642
 3 6641 6642 6644
 3 6645 6646 6647
 3 6647 6646 6648
 3 6646 6649 6648
 3 6647 6648 6650
 3 6651 6652 6653
 3 6653 6652 6654
 3 6652 6655 6654
 3 6653 6654 6656
 3 6657 6658 6659
 3 6659 6658 6660
 3 6658 6661 6660
 3 6659 6660 6662
 3 6663 6664 6665
 3 6665 6664 6666
 3 6664 6667 6666
 3 6665 6666 6668
 3 6669 6670 6671
 3 6671 6670 6672
 3 6670 6673 6672
 3 6671 6672 6674
 3 6675 6676 6677
 3 6677 6676 6678
 3 6676 6679 6678
 3 6677 6678 6680
 3 6681 6682 6683
 3 6683 6682 6684
 3 6682 6685 6684
 3 6683 6684 6686
 3 6687 6688 6689
 3 6689 6688 6690
 3 6688 6691 6690
 3 6689 6690 6692
 3 6693 6694 6695
 3 6695 6694 6696
 3 6694 6697 6696
 3 6695 6696 6698
 3 6699 6700 6701
 3 6699 6702 6700
 3 6701 6700 6703
 3 6704 6699 6701
 3 6705 6706 6707
 3 6705 6708 6706
 3 6707 6706 6709
 3 6710 6705 6707
 3 6711 6712 6713
 3 6713 6712 6714
 3 6712 6715 6714
 3 6713 6714 6716
 3 6717 6718 6719
 3 6719 6718 6720
 3 6718 6721 6720
 3 6719 6720 6722
 3 6723 6724 6725
 3 6725 6724 6726
 3 6724 6727 6726
 3 6725 6726 6728
 3 6729 6730 6731
 3 6731 6730 6732
 3 6730 6733 6732
 3 6731 6732 6734
 3 6735 6736 6737
 3 6737 6736 6738
 3 6736 6739 6738
 3 6737 6738 6740
 3 6741 6742 6743
 3 6743 6742 6744
 3 6742 6745 6744
 3 6743 6744 6746
 3 6747 6748 6749
 3 6749 6748 6750
 3 6748 6751 6750
 3 6749 6750 6752
 3 6753 6754 6755
 3 6755 6754 6756
 3 6754 6757 6756
 3 6755 6756 6758
 3 6759 6760 6761
 3 6761 6760 6762
 3 6760 6763 6762
 3 6761 6762 6764
 3 6765 6766 6767
 3 6767 6766 6768
 3 6766 6769 6768
 3 6767 6768 6770
 3 6771 6772 6773
 3 6773 6772 6774
 3 6772 6775 6774
 3 6773 6774 6776
 3 6777 6778 6779
 3 6779 6778 6780
 3 6778 6781 6780
 3 6779 6780 6782
 3 6783 6784 6785
 3 6785 6784 6786
 3 6784 6787 6786
 3 6785 6786 6788
 3 6789 6790 6791
 3 6791 6790 6792
 3 6790 6793 6792
 3 6791 6792 6794
 3 6795 6796 6797
 3 6797 6796 6798
 3 6796 6799 6798
 3 6797 6798 6800
 3 6801 6802 6803
 3 6803 6802 6804
 3 6802 6805 6804
 3 6803 6804 6806
 3 6807 6808 6809
 3 6809 6808 6810
 3 6808 6811 6810
 3 6809 6810 6812
 3 6813 6814 6815
 3 6815 6814 6816
 3 6814 6817 6816
 3 6815 6816 6818
 3 6819 6820 6821
 3 6821 6820 6822
 3 6820 6823 6822
 3 6821 6822 6824
 3 6825 6826 6827
 3 6827 6826 6828
 3 6826 6829 6828
 3 6827 6828 6830
 3 6831 6832 6833
 3 6833 6832 6834
 3 6832 6835 6834
 3 6833 6834 6836
 3 6837 6838 6839
 3 6839 6838 6840
 3 6838 6841 6840
 3 6839 6840 6842
 3 6843 6844 6845
 3 6845 6844 6846
 3 6844 6847 6846
 3 6845 6846 6848
 3 6849 6850 6851
 3 6851 6852 6849
 3 6849 6852 6853
 3 6850 6849 6854
 3 6852 6855 6853
 3 6854 6856 6850
 3 6857 6854 6849
 3 6849 6853 6857
 3 6858 6859 6860
 3 6860 6861 6858
 3 6858 6861 6862
 3 6859 6858 6863
 3 6861 6864 6862
 3 6863 6865 6859
 3 6866 6863 6858
 3 6858 6862 6866
 3 6867 6868 6869
 3 6869 6868 6870
 3 6868 6871 6870
 3 6869 6870 6872
 3 6873 6874 6875
 3 6875 6874 6876
 3 6874 6877 6876
 3 6875 6876 6878
 3 6879 6880 6881
 3 6881 6880 6882
 3 6880 6883 6882
 3 6881 6882 6884
 3 6885 6886 6887
 3 6887 6886 6888
 3 6886 6889 6888
 3 6887 6888 6890
 3 6891 6892 6893
 3 6893 6892 6894
 3 6892 6895 6894
 3 6893 6894 6896
 3 6897 6898 6899
 3 6899 6898 6900
 3 6898 6901 6900
 3 6899 6900 6902
 3 6903 6904 6905
 3 6905 6904 6906
 3 6904 6907 6906
 3 6905 6906 6908
 3 6909 6910 6911
 3 6911 6912 6909
 3 6909 6912 6913
 3 6910 6909 6914
 3 6912 6915 6913
 3 6914 6916 6910
 3 6917 6914 6909
 3 6909 6913 6917
 3 6918 6919 6920
 3 6920 6919 6921
 3 6919 6922 6921
 3 6920 6921 6923
 3 6924 6925 6926
 3 6926 6925 6927
 3 6925 6928 6927
 3 6926 6927 6929
 3 6930 6931 6932
 3 6932 6931 6933
 3 6931 6934 6933
 3 6932 6933 6935
 3 6936 6937 6938
 3 6938 6939 6936
 3 6936 6939 6940
 3 6937 6936 6941
 3 6939 6942 6940
 3 6941 6943 6937
 3 6944 6941 6936
 3 6936 6940 6944
 3 6945 6946 6947
 3 6947 6946 6948
 3 6946 6949 6948
 3 6947 6948 6950
 3 6951 6952 6953
 3 6953 6952 6954
 3 6952 6955 6954
 3 6953 6954 6956
 3 6957 6958 6959
 3 6959 6958 6960
 3 6958 6961 6960
 3 6959 6960 6962
 3 6963 6964 6965
 3 6965 6964 6966
 3 6964 6967 6966
 3 6965 6966 6968
 3 6969 6970 6971
 3 6971 6972 6969
 3 6969 6972 6973
 3 6970 6969 6974
 3 6972 6975 6973
 3 6974 6976 6970
 3 6977 6974 6969
 3 6969 6973 6977
 3 6978 6979 6980
 3 6980 6981 6978
 3 6978 6981 6982
 3 6979 6978 6983
 3 6981 6984 6982
 3 6983 6985 6979
 3 6986 6983 6978
 3 6978 6982 6986
 3 6987 6988 6989
 3 6987 6989 6990
 3 6990 6989 6991
 3 6989 6988 6992
 3 6989 6992 6993
 3 6989 6993 6991
 3 6988 6994 6992
 3 6990 6991 6995
 3 6996 6997 6998
 3 6998 6997 6999
 3 6997 7000 6999
 3 6998 6999 7001
 3 7002 7003 7004
 3 7004 7003 7005
 3 7003 7006 7005
 3 7004 7005 7007
 3 7008 7009 7010
 3 7010 7009 7011
 3 7009 7012 7011
 3 7010 7011 7013
 3 7014 7015 7016
 3 7016 7017 7014
 3 7014 7017 7018
 3 7015 7014 7019
 3 7017 7020 7018
 3 7019 7021 7015
 3 7022 7019 7014
 3 7014 7018 7022
 3 7023 7024 7025
 3 7025 7024 7026
 3 7024 7027 7026
 3 7025 7026 7028
 3 7029 7030 7031
 3 7031 7030 7032
 3 7030 7033 7032
 3 7031 7032 7034
 3 7035 7036 7037
 3 7037 7036 7038
 3 7036 7039 7038
 3 7037 7038 7040
 3 7041 7042 7043
 3 7043 7042 7044
 3 7042 7045 7044
 3 7043 7044 7046
 3 7047 7048 7049
 3 7049 7048 7050
 3 7048 7051 7050
 3 7049 7050 7052
 3 7053 7054 7055
 3 7055 7056 7053
 3 7053 7056 7057
 3 7054 7053 7058
 3 7056 7059 7057
 3 7058 7060 7054
 3 7061 7058 7053
 3 7053 7057 7061
 3 7062 7063 7064
 3 7064 7065 7062
 3 7062 7065 7066
 3 7063 7062 7067
 3 7065 7068 7066
 3 7067 7069 7063
 3 7070 7067 7062
 3 7062 7066 7070
 3 7071 7072 7073
 3 7073 7074 7071
 3 7071 7074 7075
 3 7072 7071 7076
 3 7074 7077 7075
 3 7076 7078 7072
 3 7079 7076 7071
 3 7071 7075 7079
 3 7080 7081 7082
 3 7082 7083 7080
 3 7080 7083 7084
 3 7081 7080 7085
 3 7083 7086 7084
 3 7085 7087 7081
 3 7088 7085 7080
 3 7080 7084 7088
 3 7089 7090 7091
 3 7091 7092 7089
 3 7089 7092 7093
 3 7090 7089 7094
 3 7092 7095 7093
 3 7094 7096 7090
 3 7097 7094 7089
 3 7089 7093 7097
 3 7098 7099 7100
 3 7100 7099 7101
 3 7099 7102 7101
 3 7100 7101 7103
 3 7104 7105 7106
 3 7106 7105 7107
 3 7105 7108 7107
 3 7106 7107 7109
 3 7110 7111 7112
 3 7112 7113 7110
 3 7110 7113 7114
 3 7111 7110 7115
 3 7113 7116 7114
 3 7115 7117 7111
 3 7118 7115 7110
 3 7110 7114 7118
 3 7119 7120 7121
 3 7121 7122 7119
 3 7119 7122 7123
 3 7120 7119 7124
 3 7122 7125 7123
 3 7124 7126 7120
 3 7127 7124 7119
 3 7119 7123 7127
 3 7128 7129 7130
 3 7130 7129 7131
 3 7129 7132 7131
 3 7130 7131 7133
 3 7134 7135 7136
 3 7136 7135 7137
 3 7135 7138 7137
 3 7136 7137 7139
 3 7140 7141 7142
 3 7142 7141 7143
 3 7141 7144 7143
 3 7142 7143 7145
 3 7146 7147 7148
 3 7148 7147 7149
 3 7147 7150 7149
 3 7148 7149 7151
 3 7152 7153 7154
 3 7154 7153 7155
 3 7153 7156 7155
 3 7154 7155 7157
 3 7158 7159 7160
 3 7160 7159 7161
 3 7159 7162 7161
 3 7160 7161 7163
 3 7164 7165 7166
 3 7166 7165 7167
 3 7165 7168 7167
 3 7166 7167 7169
 3 7170 7171 7172
 3 7172 7171 7173
 3 7171 7174 7173
 3 7172 7173 7175
 3 7176 7177 7178
 3 7178 7177 7179
 3 7177 7180 7179
 3 7178 7179 7181
 3 7182 7183 7184
 3 7184 7183 7185
 3 7183 7186 7185
 3 7184 7185 7187
 3 7188 7189 7190
 3 7190 7189 7191
 3 7189 7192 7191
 3 7190 7191 7193
 3 7194 7195 7196
 3 7195 7194 7197
 3 7197 7198 7195
 3 7199 7197 7194
 3 7200 7201 7202
 3 7202 7201 7203
 3 7201 7204 7203
 3 7202 7203 7205
 3 7206 7207 7208
 3 7208 7207 7209
 3 7207 7210 7209
 3 7208 7209 7211
 3 7212 7213 7214
 3 7214 7213 7215
 3 7213 7216 7215
 3 7214 7215 7217
 3 7218 7219 7220
 3 7219 7218 7221
 3 7221 7222 7219
 3 7223 7221 7218
 3 7224 7225 7226
 3 7225 7224 7227
 3 7227 7228 7225
 3 7229 7227 7224
 3 7230 7231 7232
 3 7232 7231 7233
 3 7231 7234 7233
 3 7232 7233 7235
 3 7236 7237 7238
 3 7238 7237 7239
 3 7237 7240 7239
 3 7238 7239 7241
 3 7242 7243 7244
 3 7244 7243 7245
 3 7243 7246 7245
 3 7244 7245 7247
 3 7248 7249 7250
 3 7250 7249 7251
 3 7249 7252 7251
 3 7250 7251 7253
 3 7254 7255 7256
 3 7256 7255 7257
 3 7255 7258 7257
 3 7256 7257 7259
 3 7260 7261 7262
 3 7262 7261 7263
 3 7261 7264 7263
 3 7262 7263 7265
 3 7266 7267 7268
 3 7268 7267 7269
 3 7267 7270 7269
 3 7268 7269 7271
 3 7272 7273 7274
 3 7274 7273 7275
 3 7273 7276 7275
 3 7274 7275 7277
 3 7278 7279 7280
 3 7280 7279 7281
 3 7279 7282 7281
 3 7280 7281 7283
 3 7284 7285 7286
 3 7286 7285 7287
 3 7285 7288 7287
 3 7286 7287 7289
 3 7290 7291 7292
 3 7292 7291 7293
 3 7291 7294 7293
 3 7292 7293 7295
 3 7296 7297 7298
 3 7298 7297 7299
 3 7297 7300 7299
 3 7298 7299 7301
 3 7302 7303 7304
 3 7304 7303 7305
 3 7303 7306 7305
 3 7304 7305 7307
 3 7308 7309 7310
 3 7310 7309 7311
 3 7309 7312 7311
 3 7310 7311 7313
 3 7314 7315 7316
 3 7316 7315 7317
 3 7315 7318 7317
 3 7316 7317 7319
 3 7320 7321 7322
 3 7321 7320 7323
 3 7323 7324 7321
 3 7325 7323 7320
 3 7326 7327 7328
 3 7328 7327 7329
 3 7327 7330 7329
 3 7328 7329 7331
 3 7332 7333 7334
 3 7334 7333 7335
 3 7333 7336 7335
 3 7334 7335 7337
 3 7338 7339 7340
 3 7340 7339 7341
 3 7339 7342 7341
 3 7340 7341 7343
 3 7344 7345 7346
 3 7346 7347 7344
 3 7344 7347 7348
 3 7345 7344 7349
 3 7347 7350 7348
 3 7349 7351 7345
 3 7352 7349 7344
 3 7344 7348 7352
 3 7353 7354 7355
 3 7355 7356 7353
 3 7353 7356 7357
 3 7354 7353 7358
 3 7356 7359 7357
 3 7358 7360 7354
 3 7361 7358 7353
 3 7353 7357 7361
 3 7362 7363 7364
 3 7364 7365 7362
 3 7362 7365 7366
 3 7363 7362 7367
 3 7365 7368 7366
 3 7367 7369 7363
 3 7370 7367 7362
 3 7362 7366 7370
 3 7371 7372 7373
 3 7373 7372 7374
 3 7372 7375 7374
 3 7373 7374 7376
 3 7377 7378 7379
 3 7379 7378 7380
 3 7378 7381 7380
 3 7379 7380 7382
 3 7383 7384 7385
 3 7385 7384 7386
 3 7384 7387 7386
 3 7385 7386 7388
 3 7389 7390 7391
 3 7391 7390 7392
 3 7390 7393 7392
 3 7391 7392 7394
 3 7395 7396 7397
 3 7397 7396 7398
 3 7396 7399 7398
 3 7397 7398 7400
 3 7401 7402 7403
 3 7403 7402 7404
 3 7402 7405 7404
 3 7403 7404 7406
 3 7407 7408 7409
 3 7409 7408 7410
 3 7408 7411 7410
 3 7409 7410 7412
 3 7413 7414 7415
 3 7415 7414 7416
 3 7414 7417 7416
 3 7415 7416 7418
 3 7419 7420 7421
 3 7421 7420 7422
 3 7420 7423 7422
 3 7421 7422 7424
 3 7425 7426 7427
 3 7427 7426 7428
 3 7426 7429 7428
 3 7427 7428 7430
 3 7431 7432 7433
 3 7433 7432 7434
 3 7432 7435 7434
 3 7433 7434 7436
 3 7437 7438 7439
 3 7439 7438 7440
 3 7438 7441 7440
 3 7439 7440 7442
 3 7443 7444 7445
 3 7445 7444 7446
 3 7444 7447 7446
 3 7445 7446 7448
 3 7449 7450 7451
 3 7451 7450 7452
 3 7450 7453 7452
 3 7451 7452 7454
 3 7455 7456 7457
 3 7457 7456 7458
 3 7456 7459 7458
 3 7457 7458 7460
 3 7461 7462 7463
 3 7463 7462 7464
 3 7462 7465 7464
 3 7463 7464 7466
 3 7467 7468 7469
 3 7469 7468 7470
 3 7468 7471 7470
 3 7469 7470 7472
 3 7473 7474 7475
 3 7475 7474 7476
 3 7474 7477 7476
 3 7475 7476 7478
 3 7479 7480 7481
 3 7481 7480 7482
 3 7480 7483 7482
 3 7481 7482 7484
 3 7485 7486 7487
 3 7487 7488 7485
 3 7485 7488 7489
 3 7486 7485 7490
 3 7488 7491 7489
 3 7490 7492 7486
 3 7493 7490 7485
 3 7485 7489 7493
 3 7494 7495 7496
 3 7496 7497 7494
 3 7494 7497 7498
 3 7495 7494 7499
 3 7497 7500 7498
 3 7499 7501 7495
 3 7502 7499 7494
 3 7494 7498 7502
 3 7503 7504 7505
 3 7505 7506 7503
 3 7503 7506 7507
 3 7504 7503 7508
 3 7506 7509 7507
 3 7508 7510 7504
 3 7511 7508 7503
 3 7503 7507 7511
 3 7512 7513 7514
 3 7514 7513 7515
 3 7513 7516 7515
 3 7514 7515 7517
 3 7518 7519 7520
 3 7520 7519 7521
 3 7519 7522 7521
 3 7520 7521 7523
 3 7524 7525 7526
 3 7526 7525 7527
 3 7525 7528 7527
 3 7526 7527 7529
 3 7530 7531 7532
 3 7532 7531 7533
 3 7531 7534 7533
 3 7532 7533 7535
 3 7536 7537 7538
 3 7538 7537 7539
 3 7537 7540 7539
 3 7538 7539 7541
 3 7542 7543 7544
 3 7544 7543 7545
 3 7543 7546 7545
 3 7544 7545 7547
 3 7548 7549 7550
 3 7550 7549 7551
 3 7549 7552 7551
 3 7550 7551 7553
 3 7554 7555 7556
 3 7556 7555 7557
 3 7555 7558 7557
 3 7556 7557 7559
 3 7560 7561 7562
 3 7562 7561 7563
 3 7561 7564 7563
 3 7562 7563 7565
 3 7566 7567 7568
 3 7567 7566 7569
 3 7569 7570 7567
 3 7571 7569 7566
 3 7572 7573 7574
 3 7574 7573 7575
 3 7573 7576 7575
 3 7574 7575 7577
 3 7578 7579 7580
 3 7580 7579 7581
 3 7579 7582 7581
 3 7580 7581 7583
 3 7584 7585 7586
 3 7586 7585 7587
 3 7585 7588 7587
 3 7586 7587 7589
 3 7590 7591 7592
 3 7592 7591 7593
 3 7591 7594 7593
 3 7592 7593 7595
 3 7596 7597 7598
 3 7598 7597 7599
 3 7597 7600 7599
 3 7598 7599 7601
 3 7602 7603 7604
 3 7604 7603 7605
 3 7603 7606 7605
 3 7604 7605 7607
 3 7608 7609 7610
 3 7610 7609 7611
 3 7609 7612 7611
 3 7610 7611 7613
 3 7614 7615 7616
 3 7616 7617 7614
 3 7614 7617 7618
 3 7615 7614 7619
 3 7617 7620 7618
 3 7619 7621 7615
 3 7622 7619 7614
 3 7614 7618 7622
 3 7623 7624 7625
 3 7625 7624 7626
 3 7624 7627 7626
 3 7625 7626 7628
 3 7629 7630 7631
 3 7631 7630 7632
 3 7630 7633 7632
 3 7631 7632 7634
 3 7635 7636 7637
 3 7637 7636 7638
 3 7636 7639 7638
 3 7637 7638 7640
 3 7641 7642 7643
 3 7643 7642 7644
 3 7642 7645 7644
 3 7643 7644 7646
 3 7647 7648 7649
 3 7649 7648 7650
 3 7648 7651 7650
 3 7649 7650 7652
 3 7653 7654 7655
 3 7655 7654 7656
 3 7654 7657 7656
 3 7655 7656 7658
 3 7659 7660 7661
 3 7661 7660 7662
 3 7660 7663 7662
 3 7661 7662 7664
 3 7665 7666 7667
 3 7667 7666 7668
 3 7666 7669 7668
 3 7667 7668 7670
 3 7671 7672 7673
 3 7673 7672 7674
 3 7672 7675 7674
 3 7673 7674 7676
 3 7677 7678 7679
 3 7679 7678 7680
 3 7678 7681 7680
 3 7679 7680 7682
 3 7683 7684 7685
 3 7685 7684 7686
 3 7684 7687 7686
 3 7685 7686 7688
 3 7689 7690 7691
 3 7691 7690 7692
 3 7690 7693 7692
 3 7691 7692 7694
 3 7695 7696 7697
 3 7697 7696 7698
 3 7696 7699 7698
 3 7697 7698 7700
 3 7701 7702 7703
 3 7703 7702 7704
 3 7702 7705 7704
 3 7703 7704 7706
 3 7707 7708 7709
 3 7709 7708 7710
 3 7708 7711 7710
 3 7709 7710 7712
 3 7713 7714 7715
 3 7715 7714 7716
 3 7714 7717 7716
 3 7715 7716 7718
 3 7719 7720 7721
 3 7720 7719 7722
 3 7722 7723 7720
 3 7724 7722 7719
 3 7725 7726 7727
 3 7727 7726 7728
 3 7726 7729 7728
 3 7727 7728 7730
 3 7731 7732 7733
 3 7733 7732 7734
 3 7732 7735 7734
 3 7733 7734 7736
 3 7737 7738 7739
 3 7739 7738 7740
 3 7738 7741 7740
 3 7739 7740 7742
 3 7743 7744 7745
 3 7745 7744 7746
 3 7744 7747 7746
 3 7745 7746 7748
 3 7749 7750 7751
 3 7751 7750 7752
 3 7750 7753 7752
 3 7751 7752 7754
 3 7755 7756 7757
 3 7756 7755 7758
 3 7758 7759 7756
 3 7760 7758 7755
 3 7761 7762 7763
 3 7762 7761 7764
 3 7764 7765 7762
 3 7766 7764 7761
 3 7767 7768 7769
 3 7769 7768 7770
 3 7768 7771 7770
 3 7769 7770 7772
 3 7773 7774 7775
 3 7775 7774 7776
 3 7774 7777 7776
 3 7775 7776 7778
 3 7779 7780 7781
 3 7781 7780 7782
 3 7780 7783 7782
 3 7781 7782 7784
 3 7785 7786 7787
 3 7787 7786 7788
 3 7786 7789 7788
 3 7787 7788 7790
 3 7791 7792 7793
 3 7793 7792 7794
 3 7792 7795 7794
 3 7793 7794 7796
 3 7797 7798 7799
 3 7799 7798 7800
 3 7798 7801 7800
 3 7799 7800 7802
 3 7803 7804 7805
 3 7805 7804 7806
 3 7804 7807 7806
 3 7805 7806 7808
 3 7809 7810 7811
 3 7811 7810 7812
 3 7810 7813 7812
 3 7811 7812 7814
 3 7815 7816 7817
 3 7817 7816 7818
 3 7816 7819 7818
 3 7817 7818 7820
 3 7821 7822 7823
 3 7823 7822 7824
 3 7822 7825 7824
 3 7823 7824 7826
 3 7827 7828 7829
 3 7829 7828 7830
 3 7828 7831 7830
 3 7829 7830 7832
 3 7833 7834 7835
 3 7835 7834 7836
 3 7834 7837 7836
 3 7835 7836 7838
 3 7839 7840 7841
 3 7841 7840 7842
 3 7840 7843 7842
 3 7841 7842 7844
 3 7845 7846 7847
 3 7847 7846 7848
 3 7846 7849 7848
 3 7847 7848 7850
 3 7851 7852 7853
 3 7853 7852 7854
 3 7852 7855 7854
 3 7853 7854 7856
 3 7857 7858 7859
 3 7859 7858 7860
 3 7858 7861 7860
 3 7859 7860 7862
 3 7863 7864 7865
 3 7865 7864 7866
 3 7864 7867 7866
 3 7865 7866 7868
 3 7869 7870 7871
 3 7871 7870 7872
 3 7870 7873 7872
 3 7871 7872 7874
 3 7875 7876 7877
 3 7877 7876 7878
 3 7876 7879 7878
 3 7877 7878 7880
 3 7881 7882 7883
 3 7883 7882 7884
 3 7882 7885 7884
 3 7883 7884 7886
 3 7887 7888 7889
 3 7889 7888 7890
 3 7888 7891 7890
 3 7889 7890 7892
 3 7893 7894 7895
 3 7895 7894 7896
 3 7894 7897 7896
 3 7895 7896 7898
 3 7899 7900 7901
 3 7901 7902 7899
 3 7899 7902 7903
 3 7900 7899 7904
 3 7902 7905 7903
 3 7904 7906 7900
 3 7907 7904 7899
 3 7899 7903 7907
 3 7908 7909 7910
 3 7910 7911 7908
 3 7908 7911 7912
 3 7909 7908 7913
 3 7911 7914 7912
 3 7913 7915 7909
 3 7916 7913 7908
 3 7908 7912 7916
 3 7917 7918 7919
 3 7919 7920 7917
 3 7917 7920 7921
 3 7918 7917 7922
 3 7920 7923 7921
 3 7922 7924 7918
 3 7925 7922 7917
 3 7917 7921 7925
 3 7926 7927 7928
 3 7928 7929 7926
 3 7926 7929 7930
 3 7927 7926 7931
 3 7929 7932 7930
 3 7931 7933 7927
 3 7934 7931 7926
 3 7926 7930 7934
 3 7935 7936 7937
 3 7937 7936 7938
 3 7936 7939 7938
 3 7937 7938 7940
 3 7941 7942 7943
 3 7943 7942 7944
 3 7942 7945 7944
 3 7943 7944 7946
 3 7947 7948 7949
 3 7949 7948 7950
 3 7948 7951 7950
 3 7949 7950 7952
 3 7953 7954 7955
 3 7955 7954 7956
 3 7954 7957 7956
 3 7955 7956 7958
 3 7959 7960 7961
 3 7961 7960 7962
 3 7960 7963 7962
 3 7961 7962 7964
 3 7965 7966 7967
 3 7967 7966 7968
 3 7966 7969 7968
 3 7967 7968 7970
 3 7971 7972 7973
 3 7973 7972 7974
 3 7972 7975 7974
 3 7973 7974 7976
 3 7977 7978 7979
 3 7979 7980 7977
 3 7977 7980 7981
 3 7978 7977 7982
 3 7980 7983 7981
 3 7982 7984 7978
 3 7985 7982 7977
 3 7977 7981 7985
 3 7986 7987 7988
 3 7988 7987 7989
 3 7987 7990 7989
 3 7988 7989 7991
 3 7992 7993 7994
 3 7994 7993 7995
 3 7993 7996 7995
 3 7994 7995 7997
 3 7998 7999 8000
 3 8000 7999 8001
 3 7999 8002 8001
 3 8000 8001 8003
 3 8004 8005 8006
 3 8006 8005 8007
 3 8005 8008 8007
 3 8006 8007 8009
 3 8010 8011 8012
 3 8012 8011 8013
 3 8011 8014 8013
 3 8012 8013 8015
 3 8016 8017 8018
 3 8018 8019 8016
 3 8016 8019 8020
 3 8017 8016 8021
 3 8019 8022 8020
 3 8021 8023 8017
 3 8024 8021 8016
 3 8016 8020 8024
 3 8025 8026 8027
 3 8027 8026 8028
 3 8026 8029 8028
 3 8027 8028 8030
 3 8031 8032 8033
 3 8033 8032 8034
 3 8032 8035 8034
 3 8033 8034 8036
 3 8037 8038 8039
 3 8039 8038 8040
 3 8038 8041 8040
 3 8039 8040 8042
 3 8043 8044 8045
 3 8045 8044 8046
 3 8044 8047 8046
 3 8045 8046 8048
 3 8049 8050 8051
 3 8051 8050 8052
 3 8050 8053 8052
 3 8051 8052 8054
 3 8055 8056 8057
 3 8057 8056 8058
 3 8056 8059 8058
 3 8057 8058 8060
 3 8061 8062 8063
 3 8063 8062 8064
 3 8062 8065 8064
 3 8063 8064 8066
 3 8067 8068 8069
 3 8069 8068 8070
 3 8068 8071 8070
 3 8069 8070 8072
 3 8073 8074 8075
 3 8075 8074 8076
 3 8074 8077 8076
 3 8075 8076 8078
 3 8079 8080 8081
 3 8081 8080 8082
 3 8080 8083 8082
 3 8081 8082 8084
 3 8085 8086 8087
 3 8087 8086 8088
 3 8086 8089 8088
 3 8087 8088 8090
 3 8091 8092 8093
 3 8093 8092 8094
 3 8092 8095 8094
 3 8093 8094 8096
 3 8097 8098 8099
 3 8099 8098 8100
 3 8098 8101 8100
 3 8099 8100 8102
 3 8103 8104 8105
 3 8105 8104 8106
 3 8104 8107 8106
 3 8105 8106 8108
 3 8109 8110 8111
 3 8111 8110 8112
 3 8110 8113 8112
 3 8111 8112 8114
 3 8115 8116 8117
 3 8117 8116 8118
 3 8116 8119 8118
 3 8117 8118 8120
 3 8121 8122 8123
 3 8123 8122 8124
 3 8122 8125 8124
 3 8123 8124 8126
 3 8127 8128 8129
 3 8129 8128 8130
 3 8128 8131 8130
 3 8129 8130 8132
 3 8133 8134 8135
 3 8135 8134 8136
 3 8134 8137 8136
 3 8135 8136 8138
 3 8139 8140 8141
 3 8141 8140 8142
 3 8140 8143 8142
 3 8141 8142 8144
 3 8145 8146 8147
 3 8147 8146 8148
 3 8146 8149 8148
 3 8147 8148 8150
 3 8151 8152 8153
 3 8153 8152 8154
 3 8152 8155 8154
 3 8153 8154 8156
 3 8157 8158 8159
 3 8159 8158 8160
 3 8158 8161 8160
 3 8159 8160 8162
 3 8163 8164 8165
 3 8165 8164 8166
 3 8164 8167 8166
 3 8165 8166 8168
 3 8169 8170 8171
 3 8171 8170 8172
 3 8170 8173 8172
 3 8171 8172 8174
 3 8175 8176 8177
 3 8177 8176 8178
 3 8176 8179 8178
 3 8177 8178 8180
 3 8181 8182 8183
 3 8183 8182 8184
 3 8182 8185 8184
 3 8183 8184 8186
 3 8187 8188 8189
 3 8189 8188 8190
 3 8188 8191 8190
 3 8189 8190 8192
 3 8193 8194 8195
 3 8195 8194 8196
 3 8194 8197 8196
 3 8195 8196 8198
 3 8199 8200 8201
 3 8201 8200 8202
 3 8200 8203 8202
 3 8201 8202 8204
 3 8205 8206 8207
 3 8207 8208 8205
 3 8205 8208 8209
 3 8206 8205 8210
 3 8208 8211 8209
 3 8210 8212 8206
 3 8213 8210 8205
 3 8205 8209 8213
 3 8214 8215 8216
 3 8214 8217 8215
 3 8216 8215 8218
 3 8219 8214 8216
 3 8220 8221 8222
 3 8222 8221 8223
 3 8221 8224 8223
 3 8222 8223 8225
 3 8226 8227 8228
 3 8228 8227 8229
 3 8227 8230 8229
 3 8228 8229 8231
 3 8232 8233 8234
 3 8234 8233 8235
 3 8233 8236 8235
 3 8234 8235 8237
 3 8238 8239 8240
 3 8240 8239 8241
 3 8239 8242 8241
 3 8240 8241 8243
 3 8244 8245 8246
 3 8246 8245 8247
 3 8245 8248 8247
 3 8246 8247 8249
 3 8250 8251 8252
 3 8252 8251 8253
 3 8251 8254 8253
 3 8252 8253 8255
 3 8256 8257 8258
 3 8258 8257 8259
 3 8257 8260 8259
 3 8258 8259 8261
 3 8262 8263 8264
 3 8264 8263 8265
 3 8263 8266 8265
 3 8264 8265 8267
 3 8268 8269 8270
 3 8270 8269 8271
 3 8269 8272 8271
 3 8270 8271 8273
 3 8274 8275 8276
 3 8276 8275 8277
 3 8275 8278 8277
 3 8276 8277 8279
 3 8280 8281 8282
 3 8282 8281 8283
 3 8281 8284 8283
 3 8282 8283 8285
 3 8286 8287 8288
 3 8288 8287 8289
 3 8287 8290 8289
 3 8288 8289 8291
 3 8292 8293 8294
 3 8294 8293 8295
 3 8293 8296 8295
 3 8294 8295 8297
 3 8298 8299 8300
 3 8300 8299 8301
 3 8299 8302 8301
 3 8300 8301 8303
 3 8304 8305 8306
 3 8306 8305 8307
 3 8305 8308 8307
 3 8306 8307 8309
 3 8310 8311 8312
 3 8312 8311 8313
 3 8311 8314 8313
 3 8312 8313 8315
 3 8316 8317 8318
 3 8318 8317 8319
 3 8317 8320 8319
 3 8318 8319 8321
 3 8322 8323 8324
 3 8324 8323 8325
 3 8323 8326 8325
 3 8324 8325 8327
 3 8328 8329 8330
 3 8330 8329 8331
 3 8329 8332 8331
 3 8330 8331 8333
 3 8334 8335 8336
 3 8334 8337 8335
 3 8336 8335 8338
 3 8339 8334 8336
 3 8340 8341 8342
 3 8340 8343 8341
 3 8342 8341 8344
 3 8345 8340 8342
 3 8346 8347 8348
 3 8348 8347 8349
 3 8347 8350 8349
 3 8348 8349 8351
 3 8352 8353 8354
 3 8354 8353 8355
 3 8353 8356 8355
 3 8354 8355 8357
 3 8358 8359 8360
 3 8360 8359 8361
 3 8359 8362 8361
 3 8360 8361 8363
 3 8364 8365 8366
 3 8366 8365 8367
 3 8365 8368 8367
 3 8366 8367 8369
 3 8370 8371 8372
 3 8372 8371 8373
 3 8371 8374 8373
 3 8372 8373 8375
 3 8376 8377 8378
 3 8378 8377 8379
 3 8377 8380 8379
 3 8378 8379 8381
 3 8382 8383 8384
 3 8384 8383 8385
 3 8383 8386 8385
 3 8384 8385 8387
 3 8388 8389 8390
 3 8390 8389 8391
 3 8389 8392 8391
 3 8390 8391 8393
 3 8394 8395 8396
 3 8396 8395 8397
 3 8395 8398 8397
 3 8396 8397 8399
 3 8400 8401 8402
 3 8402 8401 8403
 3 8401 8404 8403
 3 8402 8403 8405
 3 8406 8407 8408
 3 8408 8407 8409
 3 8408 8409 8410
 3 8407 8411 8409
 3 8412 8413 8414
 3 8414 8413 8415
 3 8414 8415 8416
 3 8413 8417 8415
 3 8418 8419 8420
 3 8420 8419 8421
 3 8419 8422 8421
 3 8420 8421 8423
 3 8424 8425 8426
 3 8426 8425 8427
 3 8425 8428 8427
 3 8426 8427 8429
 3 8430 8431 8432
 3 8432 8431 8433
 3 8431 8434 8433
 3 8432 8433 8435
 3 8436 8437 8438
 3 8438 8437 8439
 3 8437 8440 8439
 3 8438 8439 8441
 3 8442 8443 8444
 3 8444 8443 8445
 3 8443 8446 8445
 3 8444 8445 8447
 3 8448 8449 8450
 3 8448 8451 8449
 3 8450 8449 8452
 3 8453 8448 8450
 3 8454 8455 8456
 3 8456 8455 8457
 3 8455 8458 8457
 3 8456 8457 8459
 3 8460 8461 8462
 3 8462 8461 8463
 3 8461 8464 8463
 3 8462 8463 8465
 3 8466 8467 8468
 3 8468 8467 8469
 3 8467 8470 8469
 3 8468 8469 8471
 3 8472 8473 8474
 3 8474 8473 8475
 3 8473 8476 8475
 3 8474 8475 8477
 3 8478 8479 8480
 3 8480 8479 8481
 3 8479 8482 8481
 3 8480 8481 8483
 3 8484 8485 8486
 3 8486 8485 8487
 3 8485 8488 8487
 3 8486 8487 8489
 3 8490 8491 8492
 3 8492 8491 8493
 3 8491 8494 8493
 3 8492 8493 8495
 3 8496 8497 8498
 3 8498 8497 8499
 3 8497 8500 8499
 3 8498 8499 8501
 3 8502 8503 8504
 3 8503 8502 8505
 3 8505 8506 8503
 3 8507 8505 8502
 3 8508 8509 8510
 3 8510 8509 8511
 3 8509 8512 8511
 3 8510 8511 8513
 3 8514 8515 8516
 3 8516 8517 8514
 3 8514 8517 8518
 3 8515 8514 8519
 3 8517 8520 8518
 3 8519 8521 8515
 3 8522 8519 8514
 3 8514 8518 8522
 3 8523 8524 8525
 3 8525 8524 8526
 3 8524 8527 8526
 3 8525 8526 8528
 3 8529 8530 8531
 3 8531 8530 8532
 3 8530 8533 8532
 3 8531 8532 8534
 3 8535 8536 8537
 3 8537 8536 8538
 3 8536 8539 8538
 3 8537 8538 8540
 3 8541 8542 8543
 3 8543 8542 8544
 3 8542 8545 8544
 3 8543 8544 8546
 3 8547 8548 8549
 3 8549 8548 8550
 3 8548 8551 8550
 3 8549 8550 8552
 3 8553 8554 8555
 3 8555 8554 8556
 3 8554 8557 8556
 3 8555 8556 8558
 3 8559 8560 8561
 3 8559 8562 8560
 3 8561 8560 8563
 3 8564 8559 8561
 3 8565 8566 8567
 3 8567 8566 8568
 3 8566 8569 8568
 3 8567 8568 8570
 3 8571 8572 8573
 3 8573 8572 8574
 3 8572 8575 8574
 3 8573 8574 8576
 3 8577 8578 8579
 3 8579 8578 8580
 3 8578 8581 8580
 3 8579 8580 8582
 3 8583 8584 8585
 3 8585 8584 8586
 3 8584 8587 8586
 3 8585 8586 8588
 3 8589 8590 8591
 3 8591 8590 8592
 3 8590 8593 8592
 3 8591 8592 8594
 3 8595 8596 8597
 3 8597 8596 8598
 3 8596 8599 8598
 3 8597 8598 8600
 3 8601 8602 8603
 3 8603 8602 8604
 3 8602 8605 8604
 3 8603 8604 8606
 3 8607 8608 8609
 3 8609 8608 8610
 3 8608 8611 8610
 3 8609 8610 8612
 3 8613 8614 8615
 3 8615 8614 8616
 3 8614 8617 8616
 3 8615 8616 8618
 3 8619 8620 8621
 3 8621 8620 8622
 3 8620 8623 8622
 3 8621 8622 8624
 3 8625 8626 8627
 3 8627 8626 8628
 3 8626 8629 8628
 3 8627 8628 8630
 3 8631 8632 8633
 3 8633 8632 8634
 3 8632 8635 8634
 3 8633 8634 8636
 3 8637 8638 8639
 3 8639 8638 8640
 3 8638 8641 8640
 3 8639 8640 8642
 3 8643 8644 8645
 3 8645 8644 8646
 3 8644 8647 8646
 3 8645 8646 8648
 3 8649 8650 8651
 3 8651 8650 8652
 3 8650 8653 8652
 3 8651 8652 8654
 3 8655 8656 8657
 3 8657 8656 8658
 3 8656 8659 8658
 3 8657 8658 8660
 3 8661 8662 8663
 3 8662 8661 8664
 3 8664 8665 8662
 3 8666 8664 8661
 3 8667 8668 8669
 3 8669 8668 8670
 3 8668 8671 8670
 3 8669 8670 8672
 3 8673 8674 8675
 3 8675 8674 8676
 3 8674 8677 8676
 3 8675 8676 8678
 3 8679 8680 8681
 3 8681 8680 8682
 3 8680 8683 8682
 3 8681 8682 8684
 3 8685 8686 8687
 3 8687 8686 8688
 3 8686 8689 8688
 3 8687 8688 8690
 3 8691 8692 8693
 3 8693 8692 8694
 3 8692 8695 8694
 3 8693 8694 8696
 3 8697 8698 8699
 3 8699 8698 8700
 3 8698 8701 8700
 3 8699 8700 8702
 3 8703 8704 8705
 3 8705 8704 8706
 3 8704 8707 8706
 3 8705 8706 8708
 3 8709 8710 8711
 3 8711 8710 8712
 3 8710 8713 8712
 3 8711 8712 8714
 3 8715 8716 8717
 3 8717 8716 8718
 3 8716 8719 8718
 3 8717 8718 8720
 3 8721 8722 8723
 3 8722 8721 8724
 3 8724 8725 8722
 3 8726 8724 8721
 3 8727 8728 8729
 3 8729 8728 8730
 3 8728 8731 8730
 3 8729 8730 8732
 3 8733 8734 8735
 3 8735 8734 8736
 3 8734 8737 8736
 3 8735 8736 8738
 3 8739 8740 8741
 3 8741 8740 8742
 3 8740 8743 8742
 3 8741 8742 8744
 3 8745 8746 8747
 3 8747 8746 8748
 3 8747 8748 8749
 3 8746 8750 8748
 3 8751 8752 8753
 3 8753 8752 8754
 3 8752 8755 8754
 3 8753 8754 8756
 3 8757 8758 8759
 3 8759 8758 8760
 3 8758 8761 8760
 3 8759 8760 8762
 3 8763 8764 8765
 3 8765 8764 8766
 3 8764 8767 8766
 3 8765 8766 8768
 3 8769 8770 8771
 3 8771 8770 8772
 3 8770 8773 8772
 3 8771 8772 8774
 3 8775 8776 8777
 3 8777 8776 8778
 3 8776 8779 8778
 3 8777 8778 8780
 3 8781 8782 8783
 3 8783 8782 8784
 3 8782 8785 8784
 3 8783 8784 8786
 3 8787 8788 8789
 3 8789 8788 8790
 3 8788 8791 8790
 3 8789 8790 8792
 3 8793 8794 8795
 3 8795 8794 8796
 3 8794 8797 8796
 3 8795 8796 8798
 3 8799 8800 8801
 3 8801 8800 8802
 3 8800 8803 8802
 3 8801 8802 8804
 3 8805 8806 8807
 3 8807 8806 8808
 3 8806 8809 8808
 3 8807 8808 8810
 3 8811 8812 8813
 3 8813 8812 8814
 3 8812 8815 8814
 3 8813 8814 8816
 3 8817 8818 8819
 3 8819 8818 8820
 3 8818 8821 8820
 3 8819 8820 8822
 3 8823 8824 8825
 3 8825 8824 8826
 3 8824 8827 8826
 3 8825 8826 8828
 3 8829 8830 8831
 3 8831 8830 8832
 3 8830 8833 8832
 3 8831 8832 8834
 3 8835 8836 8837
 3 8837 8836 8838
 3 8836 8839 8838
 3 8837 8838 8840
 3 8841 8842 8843
 3 8843 8842 8844
 3 8842 8845 8844
 3 8843 8844 8846
 3 8847 8848 8849
 3 8849 8848 8850
 3 8848 8851 8850
 3 8849 8850 8852
 3 8853 8854 8855
 3 8853 8856 8854
 3 8855 8854 8857
 3 8858 8853 8855
 3 8859 8860 8861
 3 8861 8860 8862
 3 8860 8863 8862
 3 8861 8862 8864
 3 8865 8866 8867
 3 8867 8866 8868
 3 8866 8869 8868
 3 8867 8868 8870
 3 8871 8872 8873
 3 8873 8872 8874
 3 8872 8875 8874
 3 8873 8874 8876
 3 8877 8878 8879
 3 8877 8880 8878
 3 8879 8878 8881
 3 8882 8877 8879
 3 8883 8884 8885
 3 8885 8884 8886
 3 8884 8887 8886
 3 8885 8886 8888
 3 8889 8890 8891
 3 8891 8890 8892
 3 8890 8893 8892
 3 8891 8892 8894
 3 8895 8896 8897
 3 8897 8896 8898
 3 8896 8899 8898
 3 8897 8898 8900
 3 8901 8902 8903
 3 8903 8902 8904
 3 8902 8905 8904
 3 8903 8904 8906
 3 8907 8908 8909
 3 8909 8908 8910
 3 8908 8911 8910
 3 8909 8910 8912
 3 8913 8914 8915
 3 8914 8913 8916
 3 8916 8917 8914
 3 8918 8916 8913
 3 8919 8920 8921
 3 8920 8919 8922
 3 8922 8923 8920
 3 8924 8922 8919
 3 8925 8926 8927
 3 8927 8926 8928
 3 8926 8929 8928
 3 8927 8928 8930
 3 8931 8932 8933
 3 8933 8932 8934
 3 8932 8935 8934
 3 8933 8934 8936
 3 8937 8938 8939
 3 8939 8938 8940
 3 8938 8941 8940
 3 8939 8940 8942
 3 8943 8944 8945
 3 8945 8944 8946
 3 8944 8947 8946
 3 8945 8946 8948
 3 8949 8950 8951
 3 8951 8950 8952
 3 8950 8953 8952
 3 8951 8952 8954
 3 8955 8956 8957
 3 8957 8956 8958
 3 8956 8959 8958
 3 8957 8958 8960
 3 8961 8962 8963
 3 8963 8962 8964
 3 8962 8965 8964
 3 8963 8964 8966
 3 8967 8968 8969
 3 8969 8968 8970
 3 8968 8971 8970
 3 8969 8970 8972
 3 8973 8974 8975
 3 8975 8974 8976
 3 8974 8977 8976
 3 8975 8976 8978
 3 8979 8980 8981
 3 8981 8980 8982
 3 8980 8983 8982
 3 8981 8982 8984
 3 8985 8986 8987
 3 8987 8986 8988
 3 8986 8989 8988
 3 8987 8988 8990
 3 8991 8992 8993
 3 8993 8992 8994
 3 8992 8995 8994
 3 8993 8994 8996
 3 8997 8998 8999
 3 8999 8998 9000
 3 8998 9001 9000
 3 8999 9000 9002
 3 9003 9004 9005
 3 9005 9004 9006
 3 9004 9007 9006
 3 9005 9006 9008
 3 9009 9010 9011
 3 9011 9010 9012
 3 9010 9013 9012
 3 9011 9012 9014
 3 9015 9016 9017
 3 9017 9016 9018
 3 9016 9019 9018
 3 9017 9018 9020
 3 9021 9022 9023
 3 9023 9022 9024
 3 9022 9025 9024
 3 9023 9024 9026
 3 9027 9028 9029
 3 9029 9028 9030
 3 9028 9031 9030
 3 9029 9030 9032
 3 9033 9034 9035
 3 9035 9034 9036
 3 9034 9037 9036
 3 9035 9036 9038
 3 9039 9040 9041
 3 9041 9040 9042
 3 9040 9043 9042
 3 9041 9042 9044
 3 9045 9046 9047
 3 9047 9046 9048
 3 9046 9049 9048
 3 9047 9048 9050
 3 9051 9052 9053
 3 9051 9054 9052
 3 9053 9052 9055
 3 9056 9051 9053
 3 9057 9058 9059
 3 9059 9058 9060
 3 9058 9061 9060
 3 9059 9060 9062
 3 9063 9064 9065
 3 9065 9064 9066
 3 9064 9067 9066
 3 9065 9066 9068
 3 9069 9070 9071
 3 9071 9070 9072
 3 9070 9073 9072
 3 9071 9072 9074
 3 9075 9076 9077
 3 9077 9076 9078
 3 9076 9079 9078
 3 9077 9078 9080
 3 9081 9082 9083
 3 9083 9082 9084
 3 9082 9085 9084
 3 9083 9084 9086
 3 9087 9088 9089
 3 9089 9088 9090
 3 9088 9091 9090
 3 9089 9090 9092
 3 9093 9094 9095
 3 9095 9094 9096
 3 9094 9097 9096
 3 9095 9096 9098
 3 9099 9100 9101
 3 9101 9100 9102
 3 9100 9103 9102
 3 9101 9102 9104
 3 9105 9106 9107
 3 9107 9106 9108
 3 9106 9109 9108
 3 9107 9108 9110
 3 9111 9112 9113
 3 9113 9112 9114
 3 9112 9115 9114
 3 9113 9114 9116
 3 9117 9118 9119
 3 9119 9118 9120
 3 9118 9121 9120
 3 9119 9120 9122
 3 9123 9124 9125
 3 9125 9124 9126
 3 9124 9127 9126
 3 9125 9126 9128
 3 9129 9130 9131
 3 9131 9130 9132
 3 9130 9133 9132
 3 9131 9132 9134
 3 9135 9136 9137
 3 9135 9138 9136
 3 9137 9136 9139
 3 9140 9135 9137
 3 9141 9142 9143
 3 9143 9142 9144
 3 9142 9145 9144
 3 9143 9144 9146
 3 9147 9148 9149
 3 9149 9148 9150
 3 9148 9151 9150
 3 9149 9150 9152
 3 9153 9154 9155
 3 9155 9154 9156
 3 9154 9157 9156
 3 9155 9156 9158
 3 9159 9160 9161
 3 9159 9162 9160
 3 9161 9160 9163
 3 9164 9159 9161
 3 9165 9166 9167
 3 9167 9166 9168
 3 9166 9169 9168
 3 9167 9168 9170
 3 9171 9172 9173
 3 9173 9172 9174
 3 9172 9175 9174
 3 9173 9174 9176
 3 9177 9178 9179
 3 9179 9178 9180
 3 9178 9181 9180
 3 9179 9180 9182
 3 9183 9184 9185
 3 9185 9184 9186
 3 9184 9187 9186
 3 9185 9186 9188
 3 9189 9190 9191
 3 9189 9192 9190
 3 9191 9190 9193
 3 9194 9189 9191
 3 9195 9196 9197
 3 9197 9196 9198
 3 9196 9199 9198
 3 9197 9198 9200
 3 9201 9202 9203
 3 9203 9202 9204
 3 9202 9205 9204
 3 9203 9204 9206
 3 9207 9208 9209
 3 9209 9208 9210
 3 9208 9211 9210
 3 9209 9210 9212
 3 9213 9214 9215
 3 9215 9214 9216
 3 9214 9217 9216
 3 9215 9216 9218
 3 9219 9220 9221
 3 9221 9220 9222
 3 9220 9223 9222
 3 9221 9222 9224
 3 9225 9226 9227
 3 9227 9226 9228
 3 9226 9229 9228
 3 9227 9228 9230
 3 9231 9232 9233
 3 9233 9232 9234
 3 9232 9235 9234
 3 9233 9234 9236
 3 9237 9238 9239
 3 9239 9238 9240
 3 9238 9241 9240
 3 9239 9240 9242
 3 9243 9244 9245
 3 9245 9244 9246
 3 9244 9247 9246
 3 9245 9246 9248
 3 9249 9250 9251
 3 9251 9250 9252
 3 9250 9253 9252
 3 9251 9252 9254
 3 9255 9256 9257
 3 9257 9256 9258
 3 9256 9259 9258
 3 9257 9258 9260
 3 9261 9262 9263
 3 9263 9262 9264
 3 9262 9265 9264
 3 9263 9264 9266
 3 9267 9268 9269
 3 9269 9268 9270
 3 9268 9271 9270
 3 9269 9270 9272
 3 9273 9274 9275
 3 9275 9274 9276
 3 9274 9277 9276
 3 9275 9276 9278
 3 9279 9280 9281
 3 9280 9279 9282
 3 9282 9283 9280
 3 9284 9282 9279
 3 9285 9286 9287
 3 9286 9285 9288
 3 9288 9289 9286
 3 9290 9288 9285
 3 9291 9292 9293
 3 9293 9292 9294
 3 9292 9295 9294
 3 9293 9294 9296
 3 9297 9298 9299
 3 9297 9300 9298
 3 9299 9298 9301
 3 9302 9297 9299
 3 9303 9304 9305
 3 9304 9303 9306
 3 9306 9307 9304
 3 9308 9306 9303
 3 9309 9310 9311
 3 9311 9310 9312
 3 9310 9313 9312
 3 9311 9312 9314
 3 9315 9316 9317
 3 9317 9316 9318
 3 9316 9319 9318
 3 9317 9318 9320
 3 9321 9322 9323
 3 9322 9321 9324
 3 9324 9325 9322
 3 9326 9324 9321
 3 9327 9328 9329
 3 9329 9328 9330
 3 9328 9331 9330
 3 9329 9330 9332
 3 9333 9334 9335
 3 9335 9334 9336
 3 9334 9337 9336
 3 9335 9336 9338
 3 9339 9340 9341
 3 9341 9340 9342
 3 9340 9343 9342
 3 9341 9342 9344
 3 9345 9346 9347
 3 9347 9348 9345
 3 9345 9348 9349
 3 9346 9345 9350
 3 9348 9351 9349
 3 9350 9352 9346
 3 9353 9350 9345
 3 9345 9349 9353
 3 9354 9355 9356
 3 9356 9355 9357
 3 9355 9358 9357
 3 9356 9357 9359
 3 9360 9361 9362
 3 9361 9360 9363
 3 9363 9364 9361
 3 9365 9363 9360
 3 9366 9367 9368
 3 9368 9367 9369
 3 9367 9370 9369
 3 9368 9369 9371
 3 9372 9373 9374
 3 9373 9372 9375
 3 9375 9376 9373
 3 9377 9375 9372
 3 9378 9379 9380
 3 9378 9381 9379
 3 9380 9379 9382
 3 9383 9378 9380
 3 9384 9385 9386
 3 9386 9385 9387
 3 9385 9388 9387
 3 9386 9387 9389
 3 9390 9391 9392
 3 9392 9391 9393
 3 9391 9394 9393
 3 9392 9393 9395
 3 9396 9397 9398
 3 9398 9397 9399
 3 9397 9400 9399
 3 9398 9399 9401
 3 9402 9403 9404
 3 9404 9403 9405
 3 9403 9406 9405
 3 9404 9405 9407
 3 9408 9409 9410
 3 9410 9409 9411
 3 9409 9412 9411
 3 9410 9411 9413
 3 9414 9415 9416
 3 9415 9414 9417
 3 9417 9418 9415
 3 9419 9417 9414
 3 9420 9421 9422
 3 9422 9421 9423
 3 9422 9423 9424
 3 9421 9425 9423
 3 9426 9427 9428
 3 9428 9427 9429
 3 9427 9430 9429
 3 9428 9429 9431

CELL_TYPES 6840
 5 5 5 5 5 5 5 5
 5 5 5 5 5 5 5 5
 5 5 5 5 5 5 5 5
 5 5 5 5 5 5 5 5
 5 5 5 5 5 5 5 5
 5 5 5 5 5 5 5 5
 5 5 5 5 5 5 5 5
 5 5 5 5 5 5 5 5
 5 5 5 5 5 5 5 5
 5 5 5 5 5 5 5 5
 5 5 5 5 5 5 5 5
 5 5 5 5 5 5 5 5
 5 5 5 5
 5 5 5 5
 5 5 5 5
 5 5 5 5
 5 5 5 5
 5 5 5 5
 5 5 5 5
 5 5 5 5
 5 5 5 5
 5 5 5 5
 5 5 5 5
 5 5 5 5
 5 5 5 5
 5 5 5 5
 5 5 5 5
 5 5 5 5
 5 5 5 5
 5 5 5 5
 5 5 5 5
 5 5 5 5
 5 5 5 5
 5 5 5 5
 5 5 5 5
 5 5 5 5
 5 5 5 5
 5 5 5 5
 5 5 5 5
 5 5 5 5
 5 5 5 5
 5 5 5 5
 5 5 5 5
 5 5 5 5
 5 5 5 5
 5 5 5 5
 5 5 5 5
 5 5 5 5
 5 5 5 5
 5 5 5 5 5 5 5 5
 5 5 5 5 5 5 5 5
 5 5 5 5 5 5 5 5
 5 5 5 5
 5 5 5 5
 5 5 5 5 5 5 5 5
 5 5 5 5 5 5 5 5
 5 5 5 5 5 5 5 5
 5 5 5 5 5 5 5 5
 5 5 5 5 5 5 5 5
 5 5 5 5 5 5 5 5
 5 5 5 5
 5 5 5 5
 5 5 5 5
 5 5 5 5
 5 5 5 5
 5 5 5 5
 5 5 5 5 5 5 5 5
 5 5 5 5 5 5 5 5
 5 5 5 5 5 5 5 5
 5 5 5 5 5 5 5 5
 5 5 5 5 5 5 5 5
 5 5 5 5 5 5 5 5
 5 5 5 5
 5 5 5 5
 5 5 5 5
 5 5 5 5
 5 5 5 5
 5 5 5 5
 5 5 5 5
 5 5 5 5
 5 5 5 5
 5 5 5 5
 5 5 5 5
 5 5 5 5
 5 5 5 5
 5 5 5 5
 5 5 5 5
 5 5 5 5
 5 5 5 5
 5 5 5 5
 5 5 5 5
 5 5 5 5
 5 5 5 5
 5 5 5 5
 5 5 5 5
 5 5 5 5
 5 5 5 5
 5 5 5 5
 5 5 5 5
 5 5 5 5
 5 5 5 5
 5 5 5 5
 5 5 5 5
 5 5 5 5
 5 5 5 5
 5 5 5 5 5 5 5 5
 5 5 5 5 5 5 5 5
 5 5 5 5 5 5 5 5
 5 5 5 5 5 5 5 5
 5 5 5 5 5 5 5 5
 5 5 5 5 5 5 5 5
 5 5 5 5
 5 5 5 5
 5 5 5 5
 5 5 5 5
 5 5 5 5
 5 5 5 5
 5 5 5 5
 5 5 5 5
 5 5 5 5
 5 5 5 5
 5 5 5 5
 5 5 5 5
 5 5 5 5 5 5 5 5
 5 5 5 5 5 5 5 5
 5 5 5 5 5 5 5 5
 5 5 5 5 5 5 5 5
 5 5 5 5 5 5 5 5
 5 5 5 5 5 5 5 5
 5 5 5 5 5 5 5 5
 5 5 5 5 5 5 5 5
 5 5 5 5 5 5 5 5
 5 5 5 5 5 5 5 5
 5 5 5 5 5 5 5 5
 5 5 5 5 5 5 5 5
 5 5 5 5
 5 5 5 5
 5 5 5 5
 5 5 5 5
 5 5 5 5
 5 5 5 5 5 5 5 5
 5 5 5 5 5 5 5 5
 5 5 5 5
 5 5 5 5
 5 5 5 5
 5 5 5 5
 5 5 5 5
 5 5 5 5
 5 5 5 5
 5 5 5 5
 5 5 5 5
 5 5 5 5
 5 5 5 5
 5 5 5 5
 5 5 5 5
 5 5 5 5
 5 5 5 5
 5 5 5 5
 5 5 5 5
 5 5 5 5
 5 5 5 5
 5 5 5 5
 5 5 5 5 5 5 5 5
 5 5 5 5 5 5 5 5
 5 5 5 5 5 5 5 5
 5 5 5 5 5 5 5 5
 5 5 5 5 5 5 5 5
 5 5 5 5 5 5 5 5
 5 5 5 5
 5 5 5 5
 5 5 5 5
 5 5 5 5 5 5 5 5
 5 5 5 5 5 5 5 5
 5 5 5 5 5 5 5 5
 5 5 5 5 5 5 5 5
 5 5 5 5 5 5 5 5
 5 5 5 5 5 5 5 5
 5 5 5 5 5 5 5 5
 5 5 5 5 5 5 5 5
 5 5 5 5 5 5 5 5
 5 5 5 5 5 5 5 5
 5 5 5 5 5 5 5 5
 5 5 5 5 5 5 5 5
 5 5 5 5
 5 5 5 5
 5 5 5 5
 5 5 5 5
 5 5 5 5
 5 5 5 5
 5 5 5 5 5 5 5 5
 5 5 5 5
 5 5 5 5
 5 5 5 5 5 5 5 5
 5 5 5 5
 5 5 5 5
 5 5 5 5
 5 5 5 5
 5 5 5 5
 5 5 5 5
 5 5 5 5
 5 5 5 5
 5 5 5 5
 5 5 5 5
 5 5 5 5
 5 5 5 5
 5 5 5 5
 5 5 5 5
 5 5 5 5
 5 5 5 5 5 5 5 5
 5 5 5 5 5 5 5 5
 5 5 5 5
 5 5 5 5 5 5 5 5
 5 5 5 5
 5 5 5 5
 5 5 5 5
 5 5 5 5
 5 5 5 5
 5 5 5 5
 5 5 5 5
 5 5 5 5
 5 5 5 5
 5 5 5 5
 5 5 5 5
 5 5 5 5
 5 5 5 5 5 5 5 5
 5 5 5 5
 5 5 5 5 5 5 5 5
 5 5 5 5 5 5 5 5
 5 5 5 5 5 5 5 5
 5 5 5 5 5 5 5 5
 5 5 5 5 5 5 5 5
 5 5 5 5 5 5 5 5
 5 5 5 5
 5 5 5 5
 5 5 5 5
 5 5 5 5
 5 5 5 5
 5 5 5 5
 5 5 5 5
 5 5 5 5
 5 5 5 5
 5 5 5 5
 5 5 5 5
 5 5 5 5
 5 5 5 5
 5 5 5 5
 5 5 5 5
 5 5 5 5
 5 5 5 5
 5 5 5 5
 5 5 5 5
 5 5 5 5
 5 5 5 5
 5 5 5 5
 5 5 5 5
 5 5 5 5
 5 5 5 5
 5 5 5 5
 5 5 5 5 5 5 5 5
 5 5 5 5 5 5 5 5
 5 5 5 5
 5 5 5 5
 5 5 5 5
 5 5 5 5
 5 5 5 5
 5 5 5 5
 5 5 5 5
 5 5 5 5
 5 5 5 5
 5 5 5 5
 5 5 5 5
 5 5 5 5
 5 5 5 5
 5 5 5 5
 5 5 5 5
 5 5 5 5
 5 5 5 5
 5 5 5 5
 5 5 5 5
 5 5 5 5
 5 5 5 5
 5 5 5 5
 5 5 5 5
 5 5 5 5
 5 5 5 5
 5 5 5 5
 5 5 5 5
 5 5 5 5
 5 5 5 5
 5 5 5 5
 5 5 5 5
 5 5 5 5
 5 5 5 5
 5 5 5 5
 5 5 5 5
 5 5 5 5 5 5 5 5
 5 5 5 5 5 5 5 5
 5 5 5 5 5 5 5 5
 5 5 5 5 5 5 5 5
 5 5 5 5 5 5 5 5
 5 5 5 5 5 5 5 5
 5 5 5 5
 5 5 5 5
 5 5 5 5
 5 5 5 5
 5 5 5 5
 5 5 5 5
 5 5 5 5 5 5 5 5
 5 5 5 5 5 5 5 5
 5 5 5 5 5 5 5 5
 5 5 5 5 5 5 5 5
 5 5 5 5 5 5 5 5
 5 5 5 5 5 5 5 5
 5 5 5 5
 5 5 5 5
 5 5 5 5
 5 5 5 5
 5 5 5 5
 5 5 5 5
 5 5 5 5
 5 5 5 5
 5 5 5 5
 5 5 5 5
 5 5 5 5
 5 5 5 5
 5 5 5 5
 5 5 5 5
 5 5 5 5
 5 5 5 5
 5 5 5 5
 5 5 5 5
 5 5 5 5
 5 5 5 5
 5 5 5 5
 5 5 5 5
 5 5 5 5
 5 5 5 5
 5 5 5 5
 5 5 5 5
 5 5 5 5
 5 5 5 5
 5 5 5 5
 5 5 5 5
 5 5 5 5
 5 5 5 5
 5 5 5 5
 5 5 5 5
 5 5 5 5
 5 5 5 5
 5 5 5 5
 5 5 5 5
 5 5 5 5 5 5 5 5
 5 5 5 5 5 5 5 5
 5 5 5 5 5 5 5 5
 5 5 5 5
 5 5 5 5
 5 5 5 5
 5 5 5 5 5 5 5 5
 5 5 5 5 5 5 5 5
 5 5 5 5 5 5 5 5
 5 5 5 5 5 5 5 5
 5 5 5 5 5 5 5 5
 5 5 5 5 5 5 5 5
 5 5 5 5 5 5 5 5
 5 5 5 5 5 5 5 5
 5 5 5 5 5 5 5 5
 5 5 5 5
 5 5 5 5
 5 5 5 5
 5 5 5 5
 5 5 5 5
 5 5 5 5
 5 5 5 5
 5 5 5 5
 5 5 5 5
 5 5 5 5
 5 5 5 5
 5 5 5 5
 5 5 5 5
 5 5 5 5
 5 5 5 5
 5 5 5 5
 5 5 5 5
 5 5 5 5
 5 5 5 5
 5 5 5 5
 5 5 5 5
 5 5 5 5
 5 5 5 5
 5 5 5 5
 5 5 5 5
 5 5 5 5
 5 5 5 5
 5 5 5 5 5 5 5 5
 5 5 5 5 5 5 5 5
 5 5 5 5 5 5 5 5
 5 5 5 5
 5 5 5 5
 5 5 5 5
 5 5 5 5 5 5 5 5 5 5 5 5
 5 5 5 5 5 5 5 5 5 5 5 5
 5 5 5 5 5 5 5 5 5 5 5 5
 5 5 5 5 5 5 5 5
 5 5 5 5
 5 5 5 5
 5 5 5 5
 5 5 5 5 5 5 5 5
 5 5 5 5 5 5 5 5
 5 5 5 5
 5 5 5 5
 5 5 5 5
 5 5 5 5
 5 5 5 5
 5 5 5 5
 5 5 5 5 5 5 5 5 5 5 5 5
 5 5 5 5 5 5 5 5 5 5 5 5
 5 5 5 5 5 5 5 5 5 5 5 5
 5 5 5 5 5 5 5 5 5 5 5 5
 5 5 5 5 5 5 5 5 5 5 5 5
 5 5 5 5 5 5 5 5 5 5 5 5
 5 5 5 5
 5 5 5 5
 5 5 5 5
 5 5 5 5
 5 5 5 5
 5 5 5 5
 5 5 5 5
 5 5 5 5
 5 5 5 5
 5 5 5 5
 5 5 5 5
 5 5 5 5
 5 5 5 5
 5 5 5 5
 5 5 5 5
 5 5 5 5
 5 5 5 5
 5 5 5 5
 5 5 5 5 5 5 5 5
 5 5 5 5 5 5 5 5
 5 5 5 5 5 5 5 5
 5 5 5 5
 5 5 5 5
 5 5 5 5
 5 5 5 5
 5 5 5 5
 5 5 5 5
 5 5 5 5
 5 5 5 5
 5 5 5 5
 5 5 5 5
 5 5 5 5
 5 5 5 5 5 5 5 5 5 5 5 5
 5 5 5 5 5 5 5 5 5 5 5 5
 5 5 5 5 5 5 5 5 5 5 5 5
 5 5 5 5 5 5 5 5
 5 5 5 5 5 5 5 5
 5 5 5 5
 5 5 5 5
 5 5 5 5
 5 5 5 5
 5 5 5 5
 5 5 5 5
 5 5 5 5
 5 5 5 5
 5 5 5 5 5 5 5 5
 5 5 5 5 5 5 5 5
 5 5 5 5
 5 5 5 5
 5 5 5 5
 5 5 5 5
 5 5 5 5
 5 5 5 5
 5 5 5 5
 5 5 5 5 5 5 5 5
 5 5 5 5 5 5 5 5
 5 5 5 5 5 5 5 5
 5 5 5 5 5 5 5 5
 5 5 5 5 5 5 5 5
 5 5 5 5
 5 5 5 5
 5 5 5 5
 5 5 5 5
 5 5 5 5
 5 5 5 5
 5 5 5 5
 5 5 5 5 5 5 5 5
 5 5 5 5 5 5 5 5
 5 5 5 5
 5 5 5 5 5 5 5 5
 5 5 5 5
 5 5 5 5
 5 5 5 5
 5 5 5 5
 5 5 5 5
 5 5 5 5
 5 5 5 5
 5 5 5 5
 5 5 5 5
 5 5 5 5
 5 5 5 5
 5 5 5 5
 5 5 5 5
 5 5 5 5 5 5 5 5
 5 5 5 5
 5 5 5 5
 5 5 5 5 5 5 5 5
 5 5 5 5 5 5 5 5
 5 5 5 5 5 5 5 5
 5 5 5 5 5 5 5 5
 5 5 5 5 5 5 5 5
 5 5 5 5 5 5 5 5
 5 5 5 5
 5 5 5 5
 5 5 5 5
 5 5 5 5
 5 5 5 5
 5 5 5 5
 5 5 5 5
 5 5 5 5
 5 5 5 5
 5 5 5 5
 5 5 5 5
 5 5 5 5
 5 5 5 5
 5 5 5 5
 5 5 5 5
 5 5 5 5
 5 5 5 5 5 5 5 5
 5 5 5 5 5 5 5 5
 5 5 5 5 5 5 5 5
 5 5 5 5 5 5 5 5
 5 5 5 5 5 5 5 5
 5 5 5 5 5 5 5 5
 5 5 5 5 5 5 5 5
 5 5 5 5 5 5 5 5
 5 5 5 5
 5 5 5 5
 5 5 5 5 5 5 5 5
 5 5 5 5 5 5 5 5
 5 5 5 5 5 5 5 5
 5 5 5 5 5 5 5 5
 5 5 5 5 5 5 5 5
 5 5 5 5 5 5 5 5
 5 5 5 5 5 5 5 5
 5 5 5 5 5 5 5 5
 5 5 5 5 5 5 5 5
 5 5 5 5 5 5 5 5
 5 5 5 5 5 5 5 5
 5 5 5 5
 5 5 5 5 5 5 5 5
 5 5 5 5 5 5 5 5
 5 5 5 5
 5 5 5 5 5 5 5 5
 5 5 5 5 5 5 5 5
 5 5 5 5
 5 5 5 5
 5 5 5 5
 5 5 5 5
 5 5 5 5
 5 5 5 5
 5 5 5 5
 5 5 5 5
 5 5 5 5
 5 5 5 5
 5 5 5 5
 5 5 5 5
 5 5 5 5
 5 5 5 5
 5 5 5 5
 5 5 5 5
 5 5 5 5
 5 5 5 5
 5 5 5 5
 5 5 5 5
 5 5 5 5
 5 5 5 5
 5 5 5 5
 5 5 5 5
 5 5 5 5
 5 5 5 5
 5 5 5 5
 5 5 5 5
 5 5 5 5
 5 5 5 5
 5 5 5 5
 5 5 5 5
 5 5 5 5
 5 5 5 5
 5 5 5 5
 5 5 5 5
 5 5 5 5
 5 5 5 5
 5 5 5 5
 5 5 5 5
 5 5 5 5
 5 5 5 5
 5 5 5 5
 5 5 5 5
 5 5 5 5 5 5 5 5
 5 5 5 5 5 5 5 5
 5 5 5 5 5 5 5 5
 5 5 5 5 5 5 5 5
 5 5 5 5 5 5 5 5
 5 5 5 5 5 5 5 5
 5 5 5 5 5 5 5 5
 5 5 5 5 5 5 5 5
 5 5 5 5 5 5 5 5
 5 5 5 5 5 5 5 5
 5 5 5 5 5 5 5 5
 5 5 5 5 5 5 5 5
 5 5 5 5 5 5 5 5
 5 5 5 5
 5 5 5 5
 5 5 5 5
 5 5 5 5
 5 5 5 5
 5 5 5 5
 5 5 5 5 5 5 5 5
 5 5 5 5 5 5 5 5
 5 5 5 5
 5 5 5 5
 5 5 5 5
 5 5 5 5
 5 5 5 5
 5 5 5 5
 5 5 5 5
 5 5 5 5
 5 5 5 5
 5 5 5 5
 5 5 5 5
 5 5 5 5
 5 5 5 5
 5 5 5 5
 5 5 5 5
 5 5 5 5
 5 5 5 5
 5 5 5 5
 5 5 5 5
 5 5 5 5
 5 5 5 5
 5 5 5 5
 5 5 5 5
 5 5 5 5
 5 5 5 5 5 5 5 5
 5 5 5 5
 5 5 5 5
 5 5 5 5
 5 5 5 5
 5 5 5 5
 5 5 5 5
 5 5 5 5
 5 5 5 5
 5 5 5 5
 5 5 5 5
 5 5 5 5
 5 5 5 5
 5 5 5 5
 5 5 5 5
 5 5 5 5
 5 5 5 5
 5 5 5 5
 5 5 5 5
 5 5 5 5
 5 5 5 5
 5 5 5 5
 5 5 5 5 5 5 5 5
 5 5 5 5 5 5 5 5
 5 5 5 5
 5 5 5 5
 5 5 5 5
 5 5 5 5
 5 5 5 5
 5 5 5 5 5 5 5 5
 5 5 5 5 5 5 5 5
 5 5 5 5 5 5 5 5
 5 5 5 5 5 5 5 5
 5 5 5 5 5 5 5 5
 5 5 5 5 5 5 5 5
 5 5 5 5 5 5 5 5
 5 5 5 5
 5 5 5 5
 5 5 5 5
 5 5 5 5
 5 5 5 5 5 5 5 5
 5 5 5 5
 5 5 5 5
 5 5 5 5
 5 5 5 5
 5 5 5 5 5 5 5 5
 5 5 5 5
 5 5 5 5
 5 5 5 5
 5 5 5 5
 5 5 5 5
 5 5 5 5
 5 5 5 5
 5 5 5 5
 5 5 5 5
 5 5 5 5
 5 5 5 5
 5 5 5 5
 5 5 5 5
 5 5 5 5
 5 5 5 5
 5 5 5 5
 5 5 5 5
 5 5 5 5
 5 5 5 5
 5 5 5 5
 5 5 5 5
 5 5 5 5
 5 5 5 5
 5 5 5 5
 5 5 5 5
 5 5 5 5
 5 5 5 5
 5 5 5 5
 5 5 5 5 5 5 5 5
 5 5 5 5
 5 5 5 5
 5 5 5 5
 5 5 5 5
 5 5 5 5
 5 5 5 5
 5 5 5 5
 5 5 5 5
 5 5 5 5
 5 5 5 5
 5 5 5 5
 5 5 5 5
 5 5 5 5
 5 5 5 5
 5 5 5 5
 5 5 5 5
 5 5 5 5
 5 5 5 5 5 5 5 5
 5 5 5 5 5 5 5 5
 5 5 5 5 5 5 5 5
 5 5 5 5
 5 5 5 5
 5 5 5 5
 5 5 5 5
 5 5 5 5
 5 5 5 5
 5 5 5 5
 5 5 5 5
 5 5 5 5
 5 5 5 5
 5 5 5 5
 5 5 5 5
 5 5 5 5
 5 5 5 5
 5 5 5 5
 5 5 5 5
 5 5 5 5
 5 5 5 5 5 5 5 5
 5 5 5 5 5 5 5 5
 5 5 5 5
 5 5 5 5 5 5 5 5
 5 5 5 5
 5 5 5 5
 5 5 5 5
 5 5 5 5
 5 5 5 5
 5 5 5 5
 5 5 5 5
 5 5 5 5 5 5 5 5
 5 5 5 5 5 5 5 5
 5 5 5 5
 5 5 5 5
 5 5 5 5
 5 5 5 5
 5 5 5 5
 5 5 5 5
 5 5 5 5
 5 5 5 5
 5 5 5 5
 5 5 5 5
 5 5 5 5
 5 5 5 5
 5 5 5 5
 5 5 5 5
 5 5 5 5
 5 5 5 5 5 5 5 5
 5 5 5 5 5 5 5 5
 5 5 5 5 5 5 5 5
 5 5 5 5
 5 5 5 5
 5 5 5 5
 5 5 5 5
 5 5 5 5
 5 5 5 5
 5 5 5 5
 5 5 5 5
 5 5 5 5
 5 5 5 5
 5 5 5 5
 5 5 5 5
 5 5 5 5
 5 5 5 5
 5 5 5 5
 5 5 5 5
 5 5 5 5
 5 5 5 5
 5 5 5 5
 5 5 5 5
 5 5 5 5
 5 5 5 5
 5 5 5 5 5 5 5 5
 5 5 5 5
 5 5 5 5
 5 5 5 5
 5 5 5 5
 5 5 5 5
 5 5 5 5
 5 5 5 5
 5 5 5 5
 5 5 5 5
 5 5 5 5
 5 5 5 5
 5 5 5 5
 5 5 5 5
 5 5 5 5
 5 5 5 5
 5 5 5 5
 5 5 5 5
 5 5 5 5
 5 5 5 5
 5 5 5 5
 5 5 5 5
 5 5 5 5
 5 5 5 5
 5 5 5 5
 5 5 5 5
 5 5 5 5
 5 5 5 5
 5 5 5 5
 5 5 5 5
 5 5 5 5
 5 5 5 5
 5 5 5 5
 5 5 5 5
 5 5 5 5
 5 5 5 5
 5 5 5 5
 5 5 5 5
 5 5 5 5
 5 5 5 5
 5 5 5 5
 5 5 5 5
 5 5 5 5
 5 5 5 5
 5 5 5 5
 5 5 5 5
 5 5 5 5
 5 5 5 5
 5 5 5 5
 5 5 5 5
 5 5 5 5
 5 5 5 5
 5 5 5 5
 5 5 5 5 5 5 5 5
 5 5 5 5 5 5 5 5
 5 5 5 5
 5 5 5 5
 5 5 5 5
 5 5 5 5
 5 5 5 5 5 5 5 5
 5 5 5 5 5 5 5 5
 5 5 5 5 5 5 5 5
 5 5 5 5 5 5 5 5
 5 5 5 5
 5 5 5 5
 5 5 5 5
 5 5 5 5
 5 5 5 5
 5 5 5 5
 5 5 5 5
 5 5 5 5
 5 5 5 5
 5 5 5 5
 5 5 5 5
 5 5 5 5
 5 5 5 5
 5 5 5 5
 5 5 5 5
 5 5 5 5
 5 5 5 5
 5 5 5 5
 5 5 5 5
 5 5 5 5
 5 5 5 5
 5 5 5 5
 5 5 5 5
 5 5 5 5
 5 5 5 5
 5 5 5 5
 5 5 5 5
 5 5 5 5
 5 5 5 5
 5 5 5 5
 5 5 5 5
 5 5 5 5
 5 5 5 5
 5 5 5 5
 5 5 5 5
 5 5 5 5
 5 5 5 5
 5 5 5 5
 5 5 5 5
 5 5 5 5
 5 5 5 5
 5 5 5 5
 5 5 5 5
 5 5 5 5
 5 5 5 5 5 5 5 5
 5 5 5 5 5 5 5 5
 5 5 5 5
 5 5 5 5
 5 5 5 5
 5 5 5 5
 5 5 5 5
 5 5 5 5
 5 5 5 5
 5 5 5 5
 5 5 5 5
 5 5 5 5
 5 5 5 5
 5 5 5 5
 5 5 5 5
 5 5 5 5 5 5 5 5
 5 5 5 5
 5 5 5 5 5 5 5 5
 5 5 5 5
 5 5 5 5
 5 5 5 5
 5 5 5 5
 5 5 5 5
 5 5 5 5 5 5 5 5
 5 5 5 5 5 5 5 5
 5 5 5 5
 5 5 5 5
 5 5 5 5
 5 5 5 5
 5 5 5 5
 5 5 5 5
 5 5 5 5
 5 5 5 5
 5 5 5 5
 5 5 5 5
 5 5 5 5
 5 5 5 5
 5 5 5 5
 5 5 5 5
 5 5 5 5 5 5 5 5
 5 5 5 5 5 5 5 5
 5 5 5 5
 5 5 5 5
 5 5 5 5
 5 5 5 5
 5 5 5 5
 5 5 5 5
 5 5 5 5
 5 5 5 5
 5 5 5 5
 5 5 5 5
 5 5 5 5
 5 5 5 5
 5 5 5 5
 5 5 5 5
 5 5 5 5
 5 5 5 5
 5 5 5 5
 5 5 5 5
 5 5 5 5
 5 5 5 5
 5 5 5 5
 5 5 5 5
 5 5 5 5
 5 5 5 5 5 5 5 5
 5 5 5 5
 5 5 5 5 5 5 5 5
 5 5 5 5
 5 5 5 5
 5 5 5 5
 5 5 5 5
 5 5 5 5 5 5 5 5
 5 5 5 5 5 5 5 5
 5 5 5 5 5 5 5 5
 5 5 5 5
 5 5 5 5
 5 5 5 5
 5 5 5 5
 5 5 5 5
 5 5 5 5
 5 5 5 5
 5 5 5 5
 5 5 5 5
 5 5 5 5
 5 5 5 5
 5 5 5 5
 5 5 5 5
 5 5 5 5
 5 5 5 5
 5 5 5 5
 5 5 5 5
 5 5 5 5
 5 5 5 5
 5 5 5 5
 5 5 5 5
 5 5 5 5
 5 5 5 5
 5 5 5 5
 5 5 5 5
 5 5 5 5
 5 5 5 5
 5 5 5 5
 5 5 5 5
 5 5 5 5
 5 5 5 5
 5 5 5 5
 5 5 5 5
 5 5 5 5
 5 5 5 5
 5 5 5 5
 5 5 5 5
 5 5 5 5 5 5 5 5
 5 5 5 5 5 5 5 5
 5 5 5 5
 5 5 5 5
 5 5 5 5
 5 5 5 5
 5 5 5 5
 5 5 5 5
 5 5 5 5
 5 5 5 5 5 5 5 5
 5 5 5 5
 5 5 5 5
 5 5 5 5
 5 5 5 5 5 5 5 5
 5 5 5 5
 5 5 5 5
 5 5 5 5
 5 5 5 5
 5 5 5 5 5 5 5 5
 5 5 5 5 5 5 5 5
 5 5 5 5 5 5 5 5
 5 5 5 5
 5 5 5 5
 5 5 5 5
 5 5 5 5 5 5 5 5
 5 5 5 5
 5 5 5 5
 5 5 5 5
 5 5 5 5
 5 5 5 5
 5 5 5 5 5 5 5 5
 5 5 5 5 5 5 5 5
 5 5 5 5 5 5 5 5
 5 5 5 5 5 5 5 5
 5 5 5 5 5 5 5 5
 5 5 5 5
 5 5 5 5
 5 5 5 5 5 5 5 5
 5 5 5 5 5 5 5 5
 5 5 5 5
 5 5 5 5
 5 5 5 5
 5 5 5 5
 5 5 5 5
 5 5 5 5
 5 5 5 5
 5 5 5 5
 5 5 5 5
 5 5 5 5
 5 5 5 5
 5 5 5 5
 5 5 5 5
 5 5 5 5
 5 5 5 5
 5 5 5 5
 5 5 5 5
 5 5 5 5
 5 5 5 5
 5 5 5 5
 5 5 5 5
 5 5 5 5
 5 5 5 5
 5 5 5 5
 5 5 5 5
 5 5 5 5
 5 5 5 5
 5 5 5 5
 5 5 5 5
 5 5 5 5
 5 5 5 5
 5 5 5 5
 5 5 5 5
 5 5 5 5
 5 5 5 5
 5 5 5 5
 5 5 5 5 5 5 5 5
 5 5 5 5 5 5 5 5
 5 5 5 5 5 5 5 5
 5 5 5 5
 5 5 5 5
 5 5 5 5
 5 5 5 5
 5 5 5 5
 5 5 5 5
 5 5 5 5
 5 5 5 5
 5 5 5 5
 5 5 5 5
 5 5 5 5
 5 5 5 5
 5 5 5 5
 5 5 5 5
 5 5 5 5
 5 5 5 5
 5 5 5 5
 5 5 5 5
 5 5 5 5
 5 5 5 5 5 5 5 5
 5 5 5 5 5 5 5 5
 5 5 5 5 5 5 5 5
 5 5 5 5
 5 5 5 5
 5 5 5 5
 5 5 5 5
 5 5 5 5
 5 5 5 5
 5 5 5 5
 5 5 5 5
 5 5 5 5
 5 5 5 5
 5 5 5 5
 5 5 5 5
 5 5 5 5
 5 5 5 5
 5 5 5 5
 5 5 5 5
 5 5 5 5
 5 5 5 5 5 5 5 5
 5 5 5 5
 5 5 5 5
 5 5 5 5
 5 5 5 5
 5 5 5 5
 5 5 5 5
 5 5 5 5
 5 5 5 5
 5 5 5 5
 5 5 5 5
 5 5 5 5
 5 5 5 5
 5 5 5 5
 5 5 5 5
 5 5 5 5
 5 5 5 5
 5 5 5 5
 5 5 5 5
 5 5 5 5
 5 5 5 5
 5 5 5 5
 5 5 5 5
 5 5 5 5
 5 5 5 5
 5 5 5 5
 5 5 5 5
 5 5 5 5
 5 5 5 5
 5 5 5 5
 5 5 5 5
 5 5 5 5
 5 5 5 5
 5 5 5 5
 5 5 5 5
 5 5 5 5
 5 5 5 5
 5 5 5 5
 5 5 5 5
 5 5 5 5
 5 5 5 5
 5 5 5 5
 5 5 5 5
 5 5 5 5
 5 5 5 5
 5 5 5 5
 5 5 5 5
 5 5 5 5 5 5 5 5
 5 5 5 5 5 5 5 5
 5 5 5 5 5 5 5 5
 5 5 5 5 5 5 5 5
 5 5 5 5
 5 5 5 5
 5 5 5 5
 5 5 5 5
 5 5 5 5
 5 5 5 5
 5 5 5 5
 5 5 5 5 5 5 5 5
 5 5 5 5
 5 5 5 5
 5 5 5 5
 5 5 5 5
 5 5 5 5
 5 5 5 5 5 5 5 5
 5 5 5 5
 5 5 5 5
 5 5 5 5
 5 5 5 5
 5 5 5 5
 5 5 5 5
 5 5 5 5
 5 5 5 5
 5 5 5 5
 5 5 5 5
 5 5 5 5
 5 5 5 5
 5 5 5 5
 5 5 5 5
 5 5 5 5
 5 5 5 5
 5 5 5 5
 5 5 5 5
 5 5 5 5
 5 5 5 5
 5 5 5 5
 5 5 5 5
 5 5 5 5
 5 5 5 5
 5 5 5 5
 5 5 5 5
 5 5 5 5
 5 5 5 5
 5 5 5 5
 5 5 5 5
 5 5 5 5 5 5 5 5
 5 5 5 5
 5 5 5 5
 5 5 5 5
 5 5 5 5
 5 5 5 5
 5 5 5 5
 5 5 5 5
 5 5 5 5
 5 5 5 5
 5 5 5 5
 5 5 5 5
 5 5 5 5
 5 5 5 5
 5 5 5 5
 5 5 5 5
 5 5 5 5
 5 5 5 5
 5 5 5 5
 5 5 5 5
 5 5 5 5
 5 5 5 5
 5 5 5 5
 5 5 5 5
 5 5 5 5
 5 5 5 5
 5 5 5 5
 5 5 5 5
 5 5 5 5
 5 5 5 5
 5 5 5 5
 5 5 5 5
 5 5 5 5
 5 5 5 5
 5 5 5 5
 5 5 5 5
 5 5 5 5
 5 5 5 5
 5 5 5 5
 5 5 5 5
 5 5 5 5
 5 5 5 5
 5 5 5 5
 5 5 5 5
 5 5 5 5
 5 5 5 5
 5 5 5 5
 5 5 5 5
 5 5 5 5
 5 5 5 5
 5 5 5 5
 5 5 5 5 5 5 5 5
 5 5 5 5
 5 5 5 5
 5 5 5 5
 5 5 5 5
 5 5 5 5
 5 5 5 5
 5 5 5 5
 5 5 5 5
 5 5 5 5
 5 5 5 5
 5 5 5 5
 5 5 5 5
 5 5 5 5
 5 5 5 5
 5 5 5 5
 5 5 5 5
 5 5 5 5
 5 5 5 5
 5 5 5 5
 5 5 5 5
 5 5 5 5
 5 5 5 5
 5 5 5 5
 5 5 5 5
 5 5 5 5
 5 5 5 5
 5 5 5 5
 5 5 5 5
 5 5 5 5
 5 5 5 5
 5 5 5 5
 5 5 5 5
 5 5 5 5
 5 5 5 5
 5 5 5 5
 5 5 5 5
 5 5 5 5
 5 5 5 5
 5 5 5 5
 5 5 5 5
 5 5 5 5
 5 5 5 5
 5 5 5 5
 5 5 5 5
 5 5 5 5
 5 5 5 5
 5 5 5 5
 5 5 5 5
 5 5 5 5
 5 5 5 5
 5 5 5 5
 5 5 5 5
 5 5 5 5
 5 5 5 5
 5 5 5 5
 5 5 5 5
 5 5 5 5
 5 5 5 5
 5 5 5 5
 5 5 5 5
 5 5 5 5
 5 5 5 5
 5 5 5 5
 5 5 5 5
 5 5 5 5
 5 5 5 5
 5 5 5 5
 5 5 5 5
 5 5 5 5
 5 5 5 5
 5 5 5 5
 5 5 5 5
 5 5 5 5
 5 5 5 5
 5 5 5 5
 5 5 5 5
 5 5 5 5
 5 5 5 5
 5 5 5 5
 5 5 5 5
 5 5 5 5
 5 5 5 5
 5 5 5 5
 5 5 5 5
 5 5 5 5
 5 5 5 5
 5 5 5 5
 5 5 5 5
 5 5 5 5
 5 5 5 5
 5 5 5 5
 5 5 5 5
 5 5 5 5
 5 5 5 5
 5 5 5 5
 5 5 5 5
 5 5 5 5
 5 5 5 5
 5 5 5 5
 5 5 5 5
 5 5 5 5
 5 5 5 5
 5 5 5 5
 5 5 5 5
 5 5 5 5
 5 5 5 5
 5 5 5 5
 5 5 5 5
 5 5 5 5
 5 5 5 5
 5 5 5 5
 5 5 5 5
 5 5 5 5
 5 5 5 5
 5 5 5 5
 5 5 5 5
 5 5 5 5
 5 5 5 5
 5 5 5 5
 5 5 5 5
 5 5 5 5
 5 5 5 5
 5 5 5 5
 5 5 5 5
 5 5 5 5
 5 5 5 5
 5 5 5 5
 5 5 5 5
 5 5 5 5
 5 5 5 5
 5 5 5 5
 5 5 5 5
 5 5 5 5
 5 5 5 5
 5 5 5 5
 5 5 5 5
 5 5 5 5
 5 5 5 5 5 5 5 5
 5 5 5 5
 5 5 5 5
 5 5 5 5
 5 5 5 5
 5 5 5 5
 5 5 5 5
 5 5 5 5
 5 5 5 5
 5 5 5 5
 5 5 5 5
 5 5 5 5
 5 5 5 5
 5 5 5 5

POINT_DATA 9432


SCALARS Von_Mises_Stress float 1
LOOKUP_TABLE default
 49.325 46.5032 67.4961 50.7786 32.6075 28.3321 34.0611 25.5103 31.1539 49.8807 47.0841 68.7791 51.4669 32.5685 28.1857 34.1547 25.3891 30.9824 49.4112 46.6229 67.6561 50.8719 32.627 28.378 34.0878 25.5896 31.1663 43.6133 28.2361 30.8282 32.3706 45.1556 41.0211 33.9129 25.6439 56.3983 44.7384 28.1093 30.8473 32.4722 46.3634 42.0005 34.0972 25.3714 58.6295 43.885 27.8207 30.8048 32.4201 45.5002 40.9008 34.0353 24.8365 56.9651 31.8393 28.2412 31.9801 28.382 21.4336 25.1725 24.6431 18.2241 32.1209 31.9277 28.3178 31.9954 28.3855 21.4149 25.0925 24.7079 18.1219 32.063 31.8554 28.2467 31.9959 28.3872 21.4226 25.1718 24.638 18.2073 32.1363 31.9925 25.0903 28.2958 31.8513 28.1545 21.3935 24.599 18.188 31.71 32.0064 25.1228 28.3112 31.8957 28.2005 21.4276 24.616 18.2392 31.785 32.0813 25.228 28.3175 31.949 28.1852 21.4642 24.5537 18.3748 31.8167 25.3372 24.0017 27.3871 21.9517 26.0516 28.7227 25.1919 23.8764 27.2337 21.8346 25.9182 28.5491 25.3445 23.9831 27.4026 21.9251 26.0412 28.764 28.8248 26.4449 25.2635 22.8836 21.7023 24.0649 28.8022 26.5042 25.2852 22.9872 21.7682 24.2063 28.8377 26.4989 25.2699 22.9312 21.7021 24.1602 6.46618 4.80644 6.4894 4.82966 3.1467 6.51262 6.45675 6.48885 8.76773 8.79984 6.52096 11.0787 6.64548 6.59703 8.781 8.73254 6.54857 10.9165 6.56207 6.62988 8.74848 8.8163 6.69769 10.9349 6.37742 6.53292 8.6475 8.803 6.68842 10.9176 6.58286 6.47887 8.73988 8.63589 6.37488 10.8969 6.75496 6.52376 8.89729 8.66609 6.29256 11.0396 3.70587 4.95717 4.38315 5.63446 6.20848 5.06044 3.67899 4.92954 4.3278 5.57834 6.18009 4.9766 4.94019 5.50448 4.29211 4.85641 6.06878 3.64403 4.93648 5.5854 4.3031 4.95201 6.23431 3.66972 3.55189 4.87379 4.09267 5.41457 6.19569 4.63344 4.89393 5.52411 4.30857 4.93875 6.15429 3.72321 8.27625 7.32217 6.59866 5.64459 6.3681 4.92108 8.33177 7.38416 6.65653 5.70892 6.43655 4.98129 5.0386 5.77262 6.682 7.41602 6.50663 8.3254 4.8834 5.63493 6.56013 7.31166 6.38646 8.23685 4.7772 5.59651 6.57916 7.39847 6.41582 8.38113 7.88797 7.08378 6.36557 5.56139 6.2796 4.84318 3.67038 3.58787 4.26446 4.18196 3.50537 4.85855 3.73041 3.60426 4.28015 4.154 3.47812 4.82988 4.79457 4.1296 4.23121 3.56624 3.46462 3.66785 4.79782 4.11324 4.28117 3.59659 3.42867 3.76451 3.72259 3.58026 4.19189 4.04955 3.43792 4.66118 4.8749 4.19281 4.28041 3.59832 3.51073 3.68591 19.3577 18.6685 20.123 19.4338 17.9792 20.8883 19.3527 18.6665 20.1213 19.4351 17.9803 20.8899 19.3582 18.667 20.1052 19.414 17.9758 20.8521 6.39337 4.59371 6.53905 4.7394 2.79406 6.68474 6.5737 4.79166 6.46976 4.68772 3.00961 6.36582 6.7304 4.7731 6.54226 4.58496 2.8158 6.35413 17.0825 13.6312 15.1784 16.677 18.5811 15.5352 18.1757 12.0839 18.9865 17.0805 13.6358 15.1822 16.6806 18.5788 15.5341 18.1789 12.0894 18.9788 17.0802 13.6326 15.1777 16.6779 18.5804 15.5351 18.1781 12.0875 18.9827 6.63602 4.85049 6.57394 4.78841 3.06496 6.51186 6.57583 4.86591 6.62095 4.91104 3.15599 6.66608 6.84686 9.22544 6.78452 3.9889 4.05124 9.28778 1.19329 11.6664 6.9092 6.86865 9.32006 6.94279 4.0743 4.00015 9.24591 1.2058 11.6973 6.7945 6.81387 9.26481 6.85062 4.01253 3.97577 9.22806 1.17443 11.679 6.77711 6.84416 9.2491 6.77635 3.95961 4.02742 9.31691 1.14287 11.7219 6.91197 6.8105 9.28341 6.85167 3.99926 3.9581 9.24225 1.14686 11.7152 6.76934 6.82379 9.24957 6.79068 3.99781 4.03091 9.28267 1.20493 11.7085 6.85689 3.81521 5.34754 3.61383 5.14617 6.87987 3.41246 3.44052 5.18324 3.66769 5.41041 6.92595 3.89486 3.93194 5.4532 3.69781 5.21908 6.97447 3.46368 3.83102 5.38497 3.63652 5.19046 6.93892 3.44201 3.44776 5.20301 3.64103 5.39629 6.95826 3.83431 3.45514 5.169 3.6104 5.32427 6.88287 3.76566 7.80743 10.0913 8.47568 10.5823 9.914 9.42303 12.6888 11.7069 7.13917 7.83804 10.077 8.49811 10.733 10.0729 9.41698 12.9678 11.656 7.17797 7.83834 10.0755 8.50142 10.7533 10.0902 9.41243 13.0051 11.6496 7.17527 7.71646 9.46964 7.11221 9.7084 10.3126 10.0739 12.3046 11.8271 8.32071 7.63956 9.41137 7.11418 9.66114 10.1865 9.93675 12.2081 11.7086 8.16495 7.68987 9.46146 7.09568 9.69406 10.2883 10.0557 12.2924 11.8272 8.28407 24.2611 16.7639 26.2658 18.7685 9.26663 28.2705 23.7722 16.6844 25.8149 18.727 9.59646 27.8576 25.2515 18.4737 26.9913 20.2135 11.6958 28.7311 5.94278 5.73974 4.98994 4.7869 5.5367 4.03711 6.09953 6.13304 5.0968 5.13031 6.16656 4.09406 5.81566 5.85289 4.84812 4.88536 5.89013 3.88059 5.55102 5.699 4.71175 4.85974 5.84698 3.87249 5.85383 5.96052 4.87829 4.98499 6.06722 3.90276 5.98359 5.99529 5.00051 5.01221 6.00698 4.01744 28.2605 18.7868 25.4838 16.0102 9.31313 22.7072 28.208 18.6905 25.465 15.9475 9.17305 22.7219 28.0173 18.3601 25.1223 15.4651 8.70288 22.2273 7.75599 7.62573 9.9648 9.83454 7.49546 12.1736 7.7594 7.61793 9.9992 9.85774 7.47647 12.239 12.5004 10.0838 10.0959 7.67926 7.6672 7.69133 7.77335 7.61708 9.99047 9.8342 7.46082 12.2076 12.5227 10.0955 10.1107 7.68355 7.66837 7.69873 12.416 10.0035 10.0584 7.64592 7.59104 7.70081 10.5056 9.5065 12.6436 11.6445 8.50735 14.7816 10.4997 9.49778 12.6606 11.6587 8.49589 14.8216 10.3812 9.37811 12.558 11.5549 8.37501 14.7347 14.7189 11.495 12.5843 9.36034 8.27102 10.4497 14.7436 11.552 12.6267 9.4351 8.36033 10.5099 14.6264 11.6772 12.5561 9.60679 8.72792 10.4857 6.0981 5.12812 8.09275 7.12278 4.15815 10.0874 6.15541 5.18735 8.16244 7.19438 4.21929 10.1695 10.0144 7.09341 8.0704 5.14944 4.17245 6.12643 9.9554 7.0363 7.97862 5.05952 4.1172 6.00185 5.89062 5.04542 7.91618 7.07098 4.20022 9.94175 10.2099 7.31397 8.32906 5.43309 4.418 6.44818 25.3818 18.6936 26.173 19.4848 12.0054 26.9641 25.5166 18.7536 26.2312 19.4682 11.9906 26.9458 25.0939 18.4145 25.9577 19.2784 11.7352 26.8215 6.83346 9.60891 6.91833 4.77623 4.69136 9.52404 2.63413 12.2995 6.74859 6.82635 9.60368 6.91479 4.75854 4.6701 9.51524 2.60229 12.2926 6.73791 6.8637 9.49708 6.7264 4.67925 4.81655 9.63438 2.63209 12.2678 7.001 6.84465 9.55116 6.76049 4.65489 4.73904 9.63531 2.54929 12.3418 6.9288 6.82273 9.45927 6.69559 4.68338 4.81052 9.58641 2.67118 12.2229 6.94987 6.88632 9.72144 7.03757 4.80655 4.65529 9.57018 2.57552 12.4053 6.73507 26.4404 19.303 25.3341 18.1967 12.1656 24.2278 26.9116 19.3705 25.8412 18.3001 11.8293 24.7709 27.2305 20.0397 25.898 18.7072 12.8488 24.5656 3.29649 1.84331 3.56929 2.1161 0.390119 3.84209 3.96439 2.19606 3.64842 1.88009 0.427731 3.33246 3.35491 1.91882 3.68724 2.25115 0.482733 4.01957 3.33414 1.88788 3.62114 2.17489 0.441635 3.90815 3.8956 2.21013 3.61712 1.93165 0.52467 3.33863 3.79095 2.09431 3.56491 1.86827 0.397665 3.33887 18.6681 15.6498 15.4971 12.4787 12.326 12.6314 18.6668 15.6367 15.4943 12.4643 12.3218 12.6067 18.66 15.6306 15.4953 12.4659 12.3306 12.6012 6.68852 6.48246 4.01405 5.21685 7.89132 9.15693 6.41966 8.95086 9.36299 16.9879 11.827 19.6734 20.1166 17.4312 9.14146 20.5599 3.98051 14.3024 16.9992 11.8192 19.6629 20.0927 17.429 9.15553 20.5225 3.97556 14.3355 6.68531 6.457 3.9674 5.18541 7.90333 9.17492 6.40342 8.9466 9.40323 6.67858 6.47654 3.99283 5.15085 7.83659 9.16229 6.30887 8.96026 9.36432 16.9774 11.829 19.6658 20.0879 17.3996 9.14066 20.5101 3.99223 14.2891 6.7119 9.19627 9.51737 7.9605 5.15502 6.39079 6.40363 8.87516 3.90642 6.75394 9.21019 9.55785 7.99144 5.18753 6.40628 6.42504 8.86253 3.95002 16.9897 9.14658 14.2882 17.3942 20.0958 11.8482 20.5003 4.005 19.6913 6.75344 9.21471 9.55782 7.92427 5.11989 6.41033 6.29072 8.8716 3.94905 16.9914 9.14356 14.3061 17.3903 20.0756 11.8288 20.4744 3.98098 19.6767 16.9783 9.14334 14.2811 17.3673 20.0644 11.8405 20.4534 4.00554 19.6754 3.8893 5.84904 3.76998 5.72973 7.80879 3.65067 3.97284 5.85812 3.79598 5.68126 7.7434 3.61912 3.9839 5.98573 3.88414 5.88597 7.98757 3.78438 3.66008 5.76557 3.80211 5.9076 7.87106 3.94413 3.68985 5.83146 3.8005 5.94212 7.97308 3.91116 10.9024 10.6389 11.0393 8.90168 8.76469 10.5019 6.76402 10.2385 10.7654 10.9245 10.5593 10.8027 8.73397 8.85573 10.681 6.66524 10.3158 11.0462 3.75084 5.80568 3.94881 6.00366 7.86053 4.14678 10.9031 8.81586 10.9865 8.89925 6.72858 11.0699 27.9401 29.1129 31.7067 25.3463 26.519 24.1736 28.0019 29.2067 31.8233 25.3854 26.5901 24.1806 27.9901 28.9563 31.7918 25.1546 26.1208 24.1884 27.9713 25.3151 24.1431 29.1434 26.4871 31.7996 28.0521 25.5965 24.0961 29.5525 27.097 32.0081 27.9812 25.308 24.1414 29.1479 26.4747 31.8211 7.16666 8.05143 10.2038 11.0885 8.93619 13.2408 7.37113 8.25203 10.3507 11.2317 9.13293 13.3304 7.42348 8.29899 10.3421 11.2177 9.1745 13.2608 13.3266 11.2205 10.3308 8.22478 9.11447 7.33509 21.8727 21.3439 23.5999 23.0711 20.815 25.3271 21.7647 21.2456 23.5774 23.0583 20.7265 25.3901 21.8274 21.2821 23.5979 23.0526 20.7367 25.3684 13.2012 11.1548 10.2602 8.21387 9.10847 7.31927 13.3645 11.2139 10.375 8.2245 9.06337 7.38562 25.3278 23.013 23.8541 21.5393 20.6982 22.3805 25.3561 22.9895 23.8172 21.4507 20.623 22.2783 25.3263 23.0143 23.8476 21.5356 20.7024 22.3688 20.2578 13.4517 11.4475 13.0247 21.835 22.262 14.6019 15.456 29.0681 20.2781 13.5028 11.4133 13.0448 21.9096 22.3676 14.6762 15.5922 29.143 20.2363 13.48 11.3938 13.0404 21.8829 22.3224 14.687 15.5661 29.0787 20.3107 22.3613 29.2141 22.0436 13.1402 13.4579 14.8731 15.5086 11.4073 20.3649 22.4072 29.2965 22.1049 13.1732 13.4756 14.9132 15.5179 11.4332 20.0344 22.101 28.7052 21.8567 13.186 13.4302 15.0082 15.4967 11.3637 15.0105 13.8713 12.9477 11.8086 12.7322 10.885 15.0122 13.8739 12.953 11.8147 12.7355 10.8939 15.0129 13.8737 12.9524 11.8132 12.7346 10.8919 7.96781 8.07799 5.64303 5.04 7.36478 10.4028 4.43697 10.5129 10.2926 8.01976 8.08288 5.71813 5.00042 7.30204 10.3845 4.2827 10.4476 10.3214 15.6523 13.5359 17.7909 13.7498 11.6111 11.3972 9.70856 9.2808 13.5137 8.00414 8.09721 5.68744 5.03594 7.35264 10.4139 4.38445 10.507 10.3208 15.6011 13.5077 17.7843 13.7284 11.5452 11.3246 9.67241 9.23116 13.418 15.5816 13.4715 17.6894 13.6796 11.5718 11.3637 9.66977 9.25352 13.4739 8.0109 10.4246 10.3227 7.35226 5.04044 8.11277 4.3818 10.5265 5.69908 15.6254 11.317 13.4492 11.5887 13.7649 13.4932 9.72831 9.18481 17.8016 15.653 11.4752 13.5458 11.5952 13.7023 13.5823 9.64454 9.40455 17.7601 7.93567 10.395 10.2499 7.36336 5.04916 8.08081 4.47685 10.5402 5.62147 7.98584 10.4184 10.3078 7.36245 5.04046 8.09643 4.41707 10.529 5.66385 15.6157 11.2949 13.505 11.6144 13.725 13.4056 9.72369 9.0848 17.7264 25.0199 18.7266 18.1242 11.8309 12.4334 11.2285 24.6209 18.5537 17.8667 11.7996 12.4866 11.1125 26.0803 19.5485 18.9449 12.4131 13.0166 11.8095 11.1867 12.0421 17.6963 18.5517 12.8975 24.2058 11.2915 12.121 17.7392 18.5686 12.9505 24.1868 10.9121 11.5897 17.2621 17.9397 12.2673 23.612 10.9244 10.6442 11.0284 8.8446 8.74056 10.5402 6.66078 10.26 10.8203 16.4854 15.7803 17.7523 14.5134 13.8083 15.2185 16.49 15.7745 17.7566 14.5079 13.7925 15.2234 10.9537 10.5599 10.8162 8.71602 8.85354 10.6974 6.61584 10.3036 11.0912 16.4919 15.7872 17.7626 14.5165 13.8118 15.2212 8.18313 10.8987 7.58773 10.3033 13.6144 6.99232 6.98832 10.3225 7.59531 10.9294 13.6566 8.20229 6.94593 10.3347 7.59202 10.9808 13.7235 8.23812 8.0137 10.7976 7.42942 10.2133 13.5815 6.84515 6.86661 10.1645 7.61233 10.9102 13.4624 8.35806 18.2577 16.316 18.3124 16.3707 14.3743 18.3672 18.6616 16.5319 18.5158 16.3861 14.4021 18.3701 18.368 16.333 18.4659 16.4309 14.298 18.5638 18.7098 16.5313 18.5175 16.339 14.3528 18.3252 8.16641 10.9862 7.5617 10.3815 13.806 6.95699 18.3045 16.2571 18.4744 16.427 14.2098 18.6443 18.1667 16.308 18.2095 16.3507 14.4493 18.2522 6.51658 4.80889 5.91024 4.20255 3.10119 5.3039 6.54773 5.61083 8.59873 7.66183 4.67394 10.6497 10.974 10.6089 10.8942 8.82023 8.90005 10.6888 6.74627 10.3237 11.0538 10.9503 10.6681 11.018 8.90384 8.83609 10.6004 6.78963 10.3182 10.8826 4.9308 5.7509 7.78178 8.60188 6.571 10.6328 10.91 10.5527 10.8007 8.66075 8.77007 10.6621 6.52081 10.3048 11.0193 6.16125 9.22754 5.99855 9.06485 12.2938 5.83586 6.17023 9.23987 6.00267 9.07231 12.3095 5.83511 6.15221 9.21152 5.98662 9.04593 12.2708 5.82103 5.83729 9.09086 6.0481 9.30167 12.3444 6.25891 5.84624 9.05649 6.06301 9.27326 12.2667 6.27978 5.83009 9.04329 6.04638 9.25958 12.2565 6.26266 10.1601 11.2009 11.3358 12.3766 12.2417 12.5114 12.5844 12.3344 11.2968 11.0468 12.0845 10.0092 10.177 11.1438 11.3123 12.2791 12.1105 12.4476 10.2813 11.2718 11.2239 12.2144 12.2623 12.1665 12.3779 12.3014 11.3088 11.2324 12.225 10.2398 12.4303 12.3193 11.3191 11.2081 12.2084 10.2078 10.9441 10.6573 10.9532 8.775 8.76593 10.6482 6.5968 10.3614 10.9351 3.06401 4.81538 3.56299 5.31436 6.56676 4.06196 20.631 17.4463 22.2794 21.9101 20.2617 15.7979 21.5409 12.6132 18.9826 20.6129 17.4206 22.259 21.8917 20.2456 15.7745 21.5244 12.5822 18.9668 20.6003 17.3901 22.2404 21.8799 20.2398 15.7499 21.5194 12.5398 18.9601 20.6864 15.8191 19.0442 20.3054 21.9476 17.4612 21.5666 12.5939 22.3286 20.6841 15.834 19.0328 20.2885 21.9398 17.4854 21.5443 12.6353 22.3354 20.6789 15.8141 19.0383 20.3052 21.9459 17.4547 21.5722 12.5899 22.3195 5.10463 5.90873 7.95662 8.76073 6.71284 10.8086 17.7269 15.7934 15.6433 13.7098 13.8599 13.5598 17.9144 15.8085 15.7511 13.6452 13.7025 13.5878 13.7171 13.7721 15.8578 15.9128 13.8271 17.9985 13.7377 13.8573 15.8956 16.0152 13.9769 18.0535 8.54196 7.75334 6.1787 5.39008 6.96471 3.81545 17.3268 15.5178 15.2025 13.3935 13.7088 13.0782 14.0636 13.9239 16.0655 15.9257 13.7841 18.0673 3.95021 5.54427 6.34185 7.93592 7.13834 8.73349 8.74697 7.96832 6.31303 5.53437 7.18966 3.87909 8.79584 8.01703 6.39274 5.61393 7.23822 3.98964 3.86248 5.49518 6.28541 7.91812 7.12789 8.70835 3.8371 5.51777 6.22621 7.90689 7.19845 8.61532 6.65918 5.58566 8.6363 7.56278 4.51215 10.6134 4.50571 5.55959 7.57097 8.62485 6.61348 10.6362 14.3548 13.4614 13.9114 13.018 12.568 13.4681 6.4883 4.7071 5.64399 3.86279 2.92589 4.79968 5.77869 9.25759 7.69592 11.1748 12.7365 9.61315 8.65999 10.9641 11.0348 8.5893 10.8934 6.28518 5.76773 9.25804 7.72237 11.2127 12.7483 9.67701 5.79244 9.22459 7.67386 11.106 12.6567 9.55528 9.67641 11.2097 7.74493 9.2782 12.743 5.81345 9.60162 11.1196 7.72491 9.24286 12.6375 5.8482 9.59616 11.1148 7.71273 9.23137 12.6335 5.82929 5.44495 6.51051 5.35803 6.42359 7.57607 5.27111 5.36486 6.51806 5.30362 6.45682 7.67126 5.24238 10.9771 10.6308 10.8979 8.69671 8.77587 10.71 6.49549 10.3637 11.0562 10.9179 10.6543 10.9799 8.74316 8.68117 10.5923 6.50639 10.3286 10.8559 3.19078 2.75285 4.92856 4.49063 2.31492 6.66634 6.65588 4.49164 4.97845 2.8142 2.32739 3.30102 2.83579 2.5238 4.74898 4.43699 2.21181 6.66218 2.87541 2.53296 4.77557 4.43312 2.1905 6.67573 6.694 4.4776 4.86544 2.64904 2.2612 3.03688 6.67932 4.44874 4.7323 2.50172 2.21815 2.78528 2.82368 4.7927 4.00784 5.97685 6.76171 5.19199 14.4071 13.281 13.9499 12.8238 12.1549 13.4927 14.3961 13.286 13.947 12.8369 12.1759 13.4979 13.5202 12.9249 13.8927 13.2975 12.3297 14.2652 12.3694 11.6845 11.9748 11.2899 10.9996 11.5802 12.239 11.9918 12.0035 11.7562 11.7445 11.7679 12.4263 11.7096 11.9977 11.2809 10.9928 11.569 12.8063 12.5208 12.6127 12.3271 12.2352 12.4191 12.7033 11.7693 12.1693 11.2353 10.8353 11.6353 12.1942 12.0199 11.9977 11.8234 11.8455 11.8013 20.9406 19.3793 20.1273 18.566 17.818 19.3139 20.9793 19.3927 20.1322 18.5457 17.8061 19.2852 20.9099 19.3432 20.094 18.5273 17.7765 19.2781 6.56187 5.86936 8.66424 7.97172 5.17684 10.7666 5.09242 4.03341 5.84929 4.79028 2.97439 6.60616 6.70976 4.68632 5.75327 3.72983 2.66287 4.79679 6.61929 5.64104 4.74763 3.76939 4.6628 2.87598 12.6757 11.7205 11.7248 10.7696 10.7653 10.7738 12.6794 11.7162 11.73 10.7668 10.7529 10.7806 12.6786 11.7283 11.7293 10.7791 10.778 10.7801 10.8219 11.5601 12.9656 13.7037 12.2982 15.1092 10.8259 11.5665 12.9764 13.7171 12.3071 15.127 10.7934 11.541 12.9565 13.7041 12.2885 15.1197 26.3359 18.0579 18.9007 10.6227 9.77995 11.4655 26.9136 18.2335 18.9955 10.3153 9.55336 11.0773 11.2517 10.4459 18.9908 18.185 9.64011 26.7299 11.2493 10.4024 18.9765 18.1296 9.55553 26.7037 26.6198 18.5515 19.1488 11.0806 10.4833 11.6779 11.2035 10.3401 19.1657 18.3023 9.47675 27.1279 7.68865 12.2482 8.41387 7.59883 6.8736 11.523 6.78378 16.0825 6.96342 7.67573 12.2418 8.40323 7.57058 6.84307 11.5143 6.73792 16.0805 6.94823 7.6898 11.5118 6.95884 6.80642 7.53738 12.2427 6.65399 16.0647 8.42076 7.69005 11.5514 6.99212 6.95415 7.65208 12.2494 6.91618 16.1107 8.38798 7.73779 12.3503 8.48283 7.66399 6.91894 11.6052 6.84515 16.2177 6.99274 7.6881 11.5517 6.95807 6.88359 7.61362 12.2818 6.80911 16.1454 8.41813 11.5239 12.1749 11.8097 12.4607 12.8259 12.0954 12.1523 12.5381 11.8826 12.2683 12.9238 11.6129 12.2164 12.4731 11.8668 12.1236 12.7299 11.5172 11.587 12.1696 11.923 12.5056 12.7522 12.259 11.6143 12.2129 11.8894 12.4881 12.8116 12.1646 12.2823 12.477 11.9734 12.1681 12.6717 11.6644 17.0337 15.1002 16.2993 16.8147 17.5491 15.8346 17.3301 13.901 17.7682 17.0524 15.9082 17.7943 17.5935 16.8516 15.1664 17.3926 14.0222 16.3106 17.0952 16.0378 17.8599 17.5782 16.8134 15.273 17.2964 14.2156 16.3304 16.9013 15.4779 17.6619 17.4139 16.6534 14.7173 17.166 13.2939 16.1407 16.7408 14.7468 16.1514 16.675 17.2644 15.3363 17.1987 13.3423 17.3302 16.7536 14.8685 16.2115 16.7037 17.2459 15.4107 17.196 13.5256 17.2958 12.0101 13.0198 9.92126 10.931 14.0296 7.83246 11.9325 13.0065 9.88046 10.9545 14.0806 7.82844 12.2008 12.9394 10.0181 10.7567 13.678 7.83548 4.17145 6.15803 7.20602 9.1926 8.14462 10.2406 4.24375 6.1873 7.252 9.19555 8.13085 10.2603 4.20049 6.10909 7.14172 9.05032 8.01768 10.0829 10.1911 9.09907 7.1308 6.03877 8.00704 4.0705 10.1236 9.02382 7.07379 5.97404 7.92408 4.02401 10.1978 9.28259 7.31306 6.39785 8.36739 4.42832 7.63531 10.3228 9.98014 12.6676 13.0103 12.325 7.73235 10.4654 9.96715 12.7002 13.1985 12.2019 7.74747 10.48 9.9622 12.6947 13.2125 12.1769 26.811 26.888 24.8243 24.9013 26.9651 22.8375 26.905 26.9207 24.6204 24.6361 26.9364 22.3357 22.1572 24.2173 24.3335 26.3936 26.2773 26.5098 22.7818 24.5688 24.6619 26.4489 26.3558 26.542 26.8936 27.1364 24.453 24.6959 27.3793 22.0125 21.8286 24.1145 24.2241 26.5101 26.4005 26.6196 2.28527 2.55987 2.31743 2.59203 2.83447 2.34959 2.28987 2.61939 2.28649 2.616 2.9489 2.2831 2.18451 2.46 2.18459 2.46007 2.73548 2.18467 2.15845 2.48197 2.16219 2.48572 2.8055 2.16594 12.9762 12.7305 11.5386 11.2929 12.4847 10.101 2.30535 2.53286 2.2676 2.49512 2.76038 2.22985 2.23247 2.46557 2.21038 2.44348 2.69867 2.18829 12.9832 12.655 11.593 11.2648 12.3268 10.2028 12.8522 12.7002 11.4091 11.2571 12.5481 9.96605 10.2419 11.2836 11.6094 12.6512 12.3254 12.977 10.0617 11.2259 11.4537 12.6179 12.3902 12.8456 10.0413 11.2153 11.4387 12.6127 12.3893 12.8361 13.4936 13.0438 13.9124 13.4627 12.5941 14.3313 13.4495 13.0351 13.9351 13.5206 12.6206 14.4206 19.5328 16.5774 16.4603 13.5049 13.622 13.3878 19.7201 16.6498 16.4489 13.3786 13.5795 13.1777 20.2006 16.9791 16.7647 13.5433 13.7577 13.3289 13.4441 13.5807 16.956 17.0927 13.7174 20.4679 13.5106 13.6654 17.1096 17.2645 13.8203 20.7086 13.3734 13.5629 16.9242 17.1136 13.7523 20.4749 13.0562 10.967 11.0169 12.1236 14.1629 13.0063 13.2303 10.9172 15.0955 13.0527 14.158 15.0919 13.0018 10.9626 12.1188 10.9117 13.224 11.0136 13.059 14.1597 15.0907 13.01 10.9782 12.128 10.9292 13.2287 11.0272 11.6625 11.7739 11.9046 12.016 11.8853 12.1467 12.0086 12.0145 12.6771 12.683 12.0204 13.3457 12.01 12.0146 12.6967 12.7014 12.0193 13.3835 21.7854 22.5467 28.2032 19.977 13.5593 16.129 11.7509 16.8902 15.3677 21.9047 23.2204 28.5593 20.0215 13.367 16.5658 11.4838 17.8814 15.2502 21.4797 16.246 14.5736 13.0891 19.9952 23.1521 11.6046 17.9184 28.3858 21.3749 16.1242 14.3973 13.0488 20.0265 23.1018 11.7004 17.851 28.3526 21.4137 16.1374 14.4851 13.143 20.0716 23.066 11.8008 17.7897 28.3423 21.8995 23.2759 28.641 20.178 13.4365 16.5343 11.715 17.9108 15.1579 17.1447 15.294 18.9373 18.4052 16.6126 13.5014 17.8731 11.6506 15.3521 17.127 15.2825 18.9187 18.3803 16.5886 13.4908 17.8419 11.6463 15.3354 17.132 16.6026 15.3375 13.4877 15.2821 18.3971 11.6378 17.8678 18.9265 19.4929 15.8847 16.6153 13.007 12.2765 13.7376 19.2057 15.8206 16.2447 12.8596 12.4355 13.2837 19.1993 15.8168 16.3282 12.9457 12.4343 13.4571 14.3773 13.3353 16.9834 15.9414 12.2934 19.5894 19.5757 15.8778 16.9415 13.2437 12.18 14.3074 14.3786 13.3462 16.9631 15.9308 12.3139 19.5476 12.9308 11.1114 9.49133 7.67195 9.29206 6.05184 19.5162 15.8481 16.9052 13.237 12.18 14.2941 14.4956 13.3677 17.0029 15.875 12.2398 19.5102 6.06502 7.70004 9.4978 11.1328 9.33507 12.9306 12.8883 11.1096 9.4669 7.68821 9.33095 6.04547 6.08939 7.75009 9.49195 11.1526 9.41078 12.8945 5.95751 7.73134 9.54213 11.316 9.50517 13.1268 12.9037 11.1198 9.42251 7.63861 9.33593 5.9413 19.4946 15.8682 16.9228 13.2964 12.2419 14.351 6.38407 4.54832 5.24859 3.41284 2.71257 4.1131 4.83592 3.80572 5.62877 4.59857 2.77552 6.42163 6.35972 4.64783 5.59383 3.88194 2.93595 4.82793 14.2718 14.4211 11.0778 11.2271 14.5703 7.88388 14.1799 14.3529 11.0374 11.2105 14.526 7.89493 14.1675 14.3164 11.011 11.1599 14.4653 7.85456 7.90543 11.1959 11.0984 14.3889 14.4864 14.2913 7.9043 11.123 11.0629 14.2816 14.3417 14.2214 7.87749 11.0693 11.0429 14.2348 14.2612 14.2083 18.0284 18.0098 19.3804 19.3617 17.9911 20.7324 18.017 17.9711 19.3606 19.3148 17.9252 20.7043 18.0269 18.002 19.3783 19.3534 17.977 20.7297 17.1165 14.1608 18.0426 17.2441 16.318 13.2347 16.4457 10.2791 16.1904 17.1423 14.1829 18.0968 17.2846 16.3302 13.2285 16.4725 10.269 16.1879 8.0527 7.56989 7.1541 6.04215 6.94075 8.46849 4.9302 7.98568 8.9513 21.6931 20.855 21.3538 20.5157 20.0169 21.0146 21.6215 20.836 21.274 20.4884 20.0504 20.9264 21.5328 20.7911 21.2265 20.4848 20.0494 20.9202 3.32758 5.66475 3.30946 6.1788 6.19692 5.68287 8.53409 9.04814 8.02004 3.34571 3.34078 5.77196 3.23248 6.42516 6.53347 5.88026 8.96464 9.61785 8.31144 3.44909 3.35805 5.81306 3.26321 6.46021 6.55505 5.9079 9.01006 9.65722 8.36291 3.45289 17.1296 13.2569 16.2044 16.3472 17.2724 14.1822 16.4899 10.3094 18.0549 20.8279 20.6481 21.6543 21.4746 20.4684 22.4807 20.834 20.5764 21.617 21.3593 20.3187 22.4 20.8293 20.6604 21.6534 21.4844 20.4915 22.4774 24.5374 26.9491 29.0497 20.0807 15.5683 22.4367 11.1116 24.8484 20.025 24.2568 26.6781 28.4253 19.8777 15.7092 22.5096 11.3301 24.9309 20.0883 12.1777 11.9318 11.5225 11.2767 11.686 10.8673 10.7736 11.1547 11.4163 11.7975 11.5358 12.0591 12.1 11.8409 11.4683 11.2092 11.5818 10.8366 10.9914 11.3776 11.7679 12.1541 11.7637 12.5444 10.7328 11.1281 11.3826 11.778 11.5234 12.0325 12.1602 11.8998 11.4835 11.223 11.6393 10.8067 3.41042 5.82609 3.4071 6.5036 6.50693 8.92259 5.82941 9.60011 8.24507 3.41375 3.39633 5.82419 3.38206 6.48061 6.49488 8.92275 5.83847 9.57916 8.26633 3.41061 3.3598 5.79103 3.39993 6.45939 6.41925 8.85048 5.75089 9.51884 8.18213 3.31966 8.23592 16.6199 9.65628 12.5341 11.1137 19.4977 15.1996 15.4119 23.5835 6.81557 8.35957 16.7701 9.80036 12.6961 11.2553 19.6659 15.3293 15.5919 23.7398 6.91877 8.37784 16.7862 9.81284 12.7151 11.2801 19.6884 15.3512 15.6173 23.7596 6.94284 8.56547 9.44551 7.97445 8.85448 10.3255 7.38342 8.5597 9.45407 7.98978 8.88415 10.3484 7.41986 8.56732 9.46357 7.98974 8.88599 10.3598 7.41215 16.1642 16.2139 18.7665 13.6116 13.6613 13.5618 16.151 16.315 18.6919 13.7741 13.9381 13.6101 16.1139 16.2721 18.7065 13.6795 13.8377 13.5213 16.1027 13.5657 13.2955 16.3729 13.8359 18.9099 15.9922 13.741 13.5396 16.1936 13.9424 18.4447 16.0426 13.5786 13.2741 16.3471 13.8831 18.8111 13.5912 13.247 17.0982 16.754 12.9029 20.6052 13.7328 13.5029 17.3258 17.0959 13.2729 20.9189 13.4989 13.2029 17.0367 16.7406 12.9068 20.5744 10.569 11.075 10.4916 10.9975 11.5809 10.4141 10.4565 10.9819 10.4104 10.9358 11.5073 10.3642 10.3974 10.9569 10.5506 11.1101 11.5164 10.7038 10.4383 11.0145 10.5869 11.1632 11.5908 10.7356 10.3792 10.9144 10.4449 10.9801 11.4497 10.5105 10.6806 11.086 10.5447 10.9501 11.4914 10.4088 26.3969 24.6099 21.5389 17.5787 22.4367 29.4679 13.6185 27.6809 31.2549 26.1039 28.4174 30.98 22.2206 17.3444 23.5413 13.4611 25.8548 21.2277 26.0946 23.9744 20.9543 17.4953 22.6356 29.1147 14.0363 26.9945 31.2349 12.5261 12.2638 11.263 11.0007 12.0014 9.9999 12.5227 12.2572 11.2705 11.0051 11.9918 10.0184 12.5316 12.2716 11.2654 11.0055 12.0117 9.99923 23.417 23.7848 23.8094 24.1772 24.1526 24.2019 23.2664 23.787 23.6688 24.1895 24.3077 24.0712 23.3799 23.8575 23.7325 24.2101 24.3351 24.085 23.5472 24.2251 23.6159 24.2938 24.9031 23.6846 23.6713 24.3689 23.6583 24.356 25.0665 23.6454 23.7938 24.5592 23.6344 24.3998 25.3245 23.475 2.97794 4.82508 3.91937 5.76651 6.67222 4.8608 6.67753 4.89412 5.78846 4.00505 3.11072 4.89938 8.30898 15.6817 6.90912 11.1398 12.5396 17.0815 19.9123 15.3705 24.4542 9.70884 8.35429 15.3357 6.94319 11.2407 12.6518 16.7468 19.6332 15.5383 23.7281 9.7654 8.37519 15.8981 6.93254 11.174 12.6166 17.3408 20.1396 15.4154 24.8638 9.81784 23.9958 21.6036 19.4715 15.2178 19.7421 26.1279 10.9641 23.7356 28.5202 16.959 14.0379 17.8125 17.0331 16.1797 13.1844 16.2538 10.2633 16.1055 12.7094 13.9986 13.5658 14.855 15.2877 14.4223 12.6962 14.049 13.6591 15.0119 15.4019 14.622 13.7537 11.9073 14.3913 12.5449 10.0609 15.0289 14.8572 12.3731 14.1282 11.6441 9.88904 13.3991 13.3855 11.7413 14.1109 12.4666 10.097 14.8363 13.4495 11.7305 14.2124 12.4934 10.0115 14.9752 14.8685 12.3956 14.1307 11.6578 9.92259 13.393 14.5984 12.317 13.9466 11.6653 10.0357 13.2948 25.9579 23.7016 20.974 17.5784 22.5623 28.6855 14.1827 26.4291 30.9419 26.0652 28.2477 30.9428 22.1107 17.2331 23.37 13.2786 25.5525 21.1875 12.1304 10.2805 12.5735 10.7236 8.43059 13.0166 13.0734 10.6812 12.7588 10.3666 8.28899 12.4442 12.3776 10.367 12.8289 10.8183 8.35638 13.2802 12.3157 10.318 12.7206 10.7229 8.32024 13.1256 13.0895 10.6287 12.7164 10.2556 8.16787 12.3433 12.9032 10.5994 12.5475 10.2437 8.29555 12.1918 14.2614 15.135 13.4375 14.311 16.0086 12.6135 24.0077 21.5906 19.5241 15.2534 19.737 26.0743 10.9827 23.6572 28.4914 24.1617 22.0018 20.1907 15.6014 19.5724 25.9728 11.0121 23.8129 28.1328 13.1478 12.1855 11.1069 11.0654 13.1063 14.2263 11.0239 13.264 15.1886 13.1615 12.195 11.1176 11.0742 13.1182 14.2389 11.0308 13.2724 15.2055 13.1625 12.2436 11.127 11.049 13.0845 14.2791 10.9711 13.3601 15.198 5.43304 6.67965 5.37211 6.61872 7.92627 5.31117 10.5477 9.13615 10.5518 9.14029 7.72461 10.556 10.5968 9.18702 10.5913 9.18152 7.77728 10.5858 10.6359 9.14647 10.6354 9.14591 7.65701 10.6348 10.6101 9.16784 10.6208 9.17856 7.72558 10.6315 10.682 9.16352 10.6757 9.15724 7.64502 10.6695 10.6491 9.15913 10.6384 9.14846 7.66916 10.6277 17.0125 17.2776 18.0699 14.2143 13.1568 16.2201 10.3586 16.4852 15.955 17.0544 13.1504 16.0581 16.2412 17.2375 14.1467 16.4242 10.2427 18.0508 8.46786 7.97539 10.1508 9.65835 7.48292 11.8338 29.8537 16.6819 28.2603 30.2226 31.816 18.2753 32.1849 5.1035 31.4471 12.9678 10.4536 12.2312 9.71695 7.93937 11.4945 3.82235 5.19849 7.23308 8.60922 6.57464 10.6438 11.6488 10.0043 12.2469 10.6024 8.35991 12.845 11.5941 10.0049 12.1949 10.6057 8.41564 12.7957 12.6983 10.5465 12.0961 9.94431 8.39477 11.4938 13.1017 10.7292 12.4323 10.0598 8.35664 11.7629 12.6887 10.552 12.0687 9.932 8.41525 11.4488 11.5109 9.95418 12.1272 10.5705 8.39748 12.7436 8.45656 10.2515 10.5326 12.3276 12.0464 12.6087 8.45618 10.2384 10.5269 12.309 12.0205 12.5975 8.44255 10.2192 10.5136 12.2903 11.9959 12.5846 8.49274 8.00668 10.1204 9.63434 7.52062 11.7481 8.57266 7.96629 10.3102 9.70381 7.35992 12.0477 9.39711 8.816 8.74007 6.53747 7.19452 9.47304 4.33487 8.89192 10.0542 6.73564 5.69805 8.72975 7.69216 4.66047 10.7239 4.63698 5.66082 7.70102 8.72487 6.68467 10.7651 8.88667 7.3226 5.4658 3.90173 3.63388 1.77708 5.75852 1.50923 2.04493 5.57329 7.03005 9.10921 3.49413 1.91474 3.3715 1.79211 4.95089 2.03736 8.87368 7.31724 5.46215 3.90571 3.64129 1.78619 5.76081 1.52177 2.05062 5.56339 7.01025 9.08722 3.48641 1.91724 3.3641 1.79492 4.93328 2.03955 9.02638 7.2602 5.54074 3.77456 3.59589 1.87643 5.49402 1.69776 2.0551 5.65745 7.12637 9.28931 3.49451 1.95697 3.42588 1.88833 4.96342 2.0256 8.48346 7.87865 7.63769 7.03287 7.27383 6.79191 8.49047 7.88659 7.65266 7.04879 7.28272 6.81486 8.51196 7.90629 7.6492 7.04353 7.30062 6.78645 25.7567 21.0272 25.9551 21.2256 16.2977 26.1535 25.7983 21.1852 25.8968 21.2838 16.5722 25.9954 26.3327 21.3759 26.1944 21.2376 16.4191 26.0561 23.0036 21.0425 24.4398 22.4787 19.0814 25.876 22.9035 20.8939 24.3501 22.3405 18.8843 25.7967 23.3148 20.5883 24.5092 21.7827 17.8617 25.7036 6.27468 5.05147 8.49583 7.27262 3.82826 10.717 4.58743 5.49927 7.67593 8.58778 6.41111 10.7644 6.40535 5.51215 8.54853 7.65533 4.61895 10.6917 8.10177 10.4964 9.53998 9.05816 11.4528 6.66355 8.01003 10.5868 9.53502 9.06182 11.6386 6.48504 8.17117 8.97002 6.65183 10.4894 11.2882 9.6905 8.29961 8.95886 6.79789 10.4606 11.1198 9.80132 30.6009 18.3612 31.3707 32.0319 31.2621 17.5914 32.693 5.35158 29.8312 30.0628 16.8706 28.2649 30.3222 32.12 18.6684 32.3794 5.47629 31.8606 1.9999 1.81039 3.87964 5.42922 7.30897 3.69014 5.75939 1.62089 8.85854 5.43647 3.44739 1.95727 1.98373 3.47385 6.92659 2.01019 4.93751 8.91566 1.99146 1.91274 3.84953 5.48721 7.34528 3.77081 5.70759 1.83402 8.98297 5.60118 3.56348 1.96643 2.01615 3.6132 7.19823 2.06586 5.16053 9.23593 2.00581 1.81796 3.87516 5.42331 7.29266 3.68731 5.74451 1.63011 8.8408 5.45069 3.45858 1.97029 1.99838 3.48668 6.93898 2.02648 4.94687 8.93108 8.28772 10.1728 9.78728 8.67324 10.5583 6.78815 8.05456 9.04267 6.46298 10.6342 11.6224 9.64613 9.35563 9.26071 10.0012 7.13451 6.48892 8.61512 4.2678 8.5202 8.71004 9.4835 9.45953 10.1083 7.70228 7.07748 8.83473 5.29626 8.81076 8.85869 9.32927 9.24852 9.9838 7.10142 6.44689 8.59399 4.21904 8.51324 8.67474 9.40627 8.76429 8.77633 6.54946 7.1794 9.39423 4.32259 8.75226 10.0362 8.13706 7.53688 7.24644 6.09487 6.98549 8.42751 4.9433 7.82733 9.02768 8.07135 7.51514 7.17462 6.07397 6.97069 8.41186 4.97331 7.85565 8.96807 7.17119 6.3807 4.84842 5.7039 8.02667 8.70347 6.55937 7.91298 9.49396 7.14495 6.37679 4.8367 5.69181 8.00006 8.68504 6.54693 7.91688 9.4532 7.14477 6.06067 4.85371 5.67214 7.9632 8.35173 6.49056 7.26762 9.43583 24.3942 27.0087 28.3417 19.6935 15.746 23.0613 11.0452 25.6758 20.4467 26.2912 28.6824 31.1748 22.0133 17.1298 23.7988 12.8519 26.19 21.4077 5.29789 5.12316 7.11498 6.94026 4.94844 8.93208 9.52307 9.60422 10.1433 7.64511 7.02489 8.984 5.14693 9.06515 8.90284 9.48398 9.46418 10.1123 7.6932 7.06487 8.83585 5.27408 8.81604 8.85565 5.2687 5.08445 7.1178 6.93355 4.9002 8.96689 9.33218 8.69217 8.7375 6.50384 7.09852 9.28684 4.27018 8.64683 9.92686 9.33292 9.29945 9.93237 7.08913 6.48968 8.7 4.24589 8.66653 8.73347 2.90072 3.35448 4.30689 4.76064 3.80823 5.71306 3.79124 3.19655 5.00826 4.41357 2.60186 6.22528 3.69636 3.4873 4.74528 4.53621 3.27824 5.79419 3.6955 3.41602 4.79475 4.51527 3.13654 5.894 3.10796 3.39796 4.58154 4.87155 3.68796 6.05513 3.01731 3.39938 4.59251 4.97458 3.78144 6.16771 13.3906 13.6642 13.0979 13.3715 13.9378 12.8052 13.2031 13.5715 12.9562 13.3246 13.9399 12.7092 13.065 13.4259 13.2396 13.6004 13.7867 13.4141 13.0724 13.423 13.2101 13.5607 13.7737 13.3477 13.505 13.8146 13.1788 13.4884 14.1243 12.8526 13.0164 13.4133 13.1917 13.5886 13.8102 13.3669 7.94631 5.44087 7.73435 5.22891 2.93543 7.52239 7.99764 5.49889 7.8197 5.32095 3.00014 7.64176 7.23498 4.86275 7.3202 4.94796 2.49052 7.40541 13.4943 11.6314 12.1237 10.2608 9.7685 10.753 10.5911 10.1785 11.9492 11.5366 9.76592 13.3073 10.7233 10.2355 12.0671 11.5793 9.74768 13.4109 10.742 10.2418 12.0452 11.545 9.7416 13.3483 13.4824 11.6121 12.1289 10.2587 9.74192 10.7754 13.4769 11.5839 12.1439 10.2509 9.69097 10.8109 3.71862 2.18136 3.5088 2.39119 0.853924 3.92845 3.72882 2.16466 3.47804 2.41544 0.851272 3.97961 3.72124 2.3633 3.95319 2.13135 0.773404 3.48929 3.71678 2.44017 4.02481 2.13214 0.855526 3.40876 3.66683 2.09659 3.36332 2.4001 0.829862 3.97034 3.71368 2.30137 3.86983 2.14523 0.732923 3.55754 10.8701 9.88825 11.6642 10.6823 8.90638 12.4583 10.8732 9.88876 11.6714 10.687 8.90435 12.4696 10.8609 9.86893 11.6551 10.6631 8.87693 12.4492 14.8225 13.2274 16.6126 15.0175 11.6323 18.4027 18.3469 14.9676 16.5885 13.2092 11.5884 14.83 14.8813 13.2467 16.6868 15.0522 11.6121 18.4923 14.79 13.211 16.6156 15.0366 11.6321 18.4412 18.3762 14.9893 16.6323 13.2454 11.6024 14.8883 18.3617 15.0162 16.5048 13.1593 11.6706 14.6479 5.23261 6.10187 6.50966 7.37892 6.97113 7.7867 5.17557 6.03331 6.56463 7.42237 6.89105 7.95369 11.9317 12.1695 15.3006 15.5384 12.4073 18.6696 11.9537 12.1994 15.3117 15.5574 12.445 18.6697 11.9484 12.1857 15.2995 15.5369 12.423 18.6507 20.7642 19.4009 19.2235 17.8603 18.0376 17.6829 20.8402 19.4443 19.2782 17.8824 18.0484 17.7163 20.7974 19.4411 19.2617 17.9053 18.0847 17.7259 10.4071 8.05987 10.7202 10.249 9.93587 7.74677 9.77778 5.39958 10.094 7.52656 10.0135 12.9034 8.32597 13.7028 15.3904 18.2802 12.5005 9.12537 7.31443 5.00822 7.57141 10.8458 8.28265 4.75123 14.1203 2.44502 7.05744 7.40292 9.98381 12.9092 7.96686 13.4732 15.4901 18.4155 12.5647 8.5308 7.13729 4.79435 7.20006 10.5221 8.1164 4.73158 13.8442 2.38864 7.07452 7.50078 10.0378 12.9038 8.20636 13.6094 15.4408 18.3069 12.5747 8.91194 7.23589 4.97182 7.51373 10.8107 8.26879 4.69399 14.1077 2.42992 6.95806 7.24562 7.91126 12.8441 9.85156 15.45 13.5097 18.4425 8.57689 12.4575 10.3776 4.70761 7.07201 7.00246 4.63806 8.01323 6.93291 2.34322 13.6832 7.38955 7.99698 13.0519 9.94672 15.6091 13.6594 18.7143 8.60441 12.5039 10.6434 4.74164 7.31861 6.98487 4.4079 8.06646 6.65114 2.16466 13.9683 7.24682 7.96771 12.7747 9.85287 15.3808 13.4956 18.3026 8.68861 12.4589 10.3703 4.72425 7.07289 7.03764 4.68901 8.02166 7.0024 2.37562 13.6677 9.51588 8.49338 10.9757 9.95319 7.47089 12.4355 9.71498 8.55918 11.0608 9.90495 7.40337 12.4065 8.80257 8.10195 11.1066 10.4059 7.40134 13.4106 11.6275 9.42024 10.4857 8.27846 7.21295 9.34396 11.9932 9.77216 10.8515 8.63047 7.55116 9.70977 11.967 9.66118 10.917 8.61117 7.3554 9.86695 7.91935 5.53805 7.05469 7.15355 8.01821 6.40271 7.25241 4.02142 8.78401 8.00573 5.69278 7.23927 7.15594 7.9224 6.45925 7.07261 4.1463 8.77219 14.8234 15.5354 14.8074 15.5194 16.2475 14.7913 14.9318 15.6651 14.7232 15.4565 16.3984 14.5146 14.5381 15.408 14.748 15.6179 16.2779 14.958 14.5443 15.4461 14.7603 15.6622 16.348 14.9764 14.8969 15.6704 14.723 15.4965 16.4439 14.5491 15.3441 15.7183 14.8834 15.2577 16.0926 14.4228 20.977 23.2996 18.9025 21.2251 25.6222 16.828 20.7309 23.348 18.6928 21.3099 25.9651 16.6547 21.2987 23.4671 19.2105 21.3789 25.6355 17.1223 9.68659 8.17157 8.98439 7.46937 6.65654 8.28219 7.46213 6.17831 6.94357 5.65975 4.89449 6.42501 7.47704 6.15927 6.95388 5.63611 4.84151 6.43072 8.28232 7.44089 8.94024 8.09881 6.59947 9.59816 6.41567 5.65924 6.90929 6.15286 4.90281 7.4029 6.42994 5.64344 6.92669 6.14019 4.85695 7.42343 8.46576 7.52835 9.03792 8.10051 6.59094 9.61007 8.67887 7.61 9.13676 8.06789 6.54114 9.59464 6.4191 5.6415 6.91979 6.1422 4.86391 7.42048 7.51001 6.19927 6.95928 5.64854 4.88853 6.40855 9.72206 8.16582 9.09196 7.53572 6.60958 8.46185 9.70824 8.15148 9.19479 7.63802 6.59471 8.68134 15.9372 19.7178 18.2985 22.0791 23.4984 20.6599 15.8806 19.6466 18.3934 22.1593 23.4125 20.9062 16.3778 19.9528 19.0488 22.6238 23.5278 21.7198 10.3095 9.84494 9.91845 7.45647 7.84755 10.236 4.99449 9.77143 10.7006 9.3881 10.7978 9.65354 11.0633 12.2076 9.91898 9.04543 10.8635 9.43922 11.2572 12.6815 9.833 9.82577 11.3284 9.42563 10.9283 12.8311 9.02549 9.85039 11.3484 9.45878 10.9568 12.8464 9.06717 9.20232 10.9151 9.51581 11.2286 12.6279 9.82929 8.80671 9.3854 9.276 9.85469 9.9641 9.74529 11.1845 12.2253 11.1646 12.2054 13.2661 11.1447 11.0839 12.2263 11.0704 12.2128 13.3687 11.057 5.60843 10.7414 5.69201 10.825 15.8744 5.77559 11.2116 12.2692 11.1866 12.2443 13.3269 11.1617 5.85289 10.8496 5.73893 10.7356 15.8463 5.62496 10.9503 12.1566 11.0132 12.2195 13.363 11.0761 5.60808 10.7416 5.70276 10.8363 15.8751 5.79744 11.1335 12.2767 11.1148 12.258 13.4199 11.0962 5.61309 10.7406 5.70607 10.8336 15.8681 5.79906 11.2586 12.3016 11.2303 12.2733 13.3446 11.202 5.86326 10.8461 5.74536 10.7282 15.829 5.62747 5.8554 10.8482 5.73399 10.7268 15.8409 5.61257 9.77194 11.4921 9.60733 11.3275 13.2122 9.44271 10.5415 10.4489 10.3946 10.302 10.3563 10.2477 9.89533 10.1136 9.66209 9.88035 10.3318 9.42885 11.4422 10.1818 13.5059 13.389 11.3254 8.11821 13.2721 6.8578 9.37862 11.4843 10.2522 13.6065 13.3904 11.2682 8.13002 13.1743 6.89792 9.36212 1.59418 4.46003 1.48959 4.35543 7.32587 1.385 1.57035 4.44121 1.4834 4.35426 7.31206 1.39646 2.23651 4.41135 1.76957 3.94441 6.58619 1.30263 10.5738 10.3802 10.5682 10.3747 10.1867 10.5627 10.5858 10.3802 10.5717 10.3661 10.1745 10.5577 10.2996 7.69184 10.6938 10.2173 9.82316 7.29766 9.74095 4.68993 9.90538 10.3485 7.38244 9.99811 9.90439 10.2548 7.73281 9.81066 4.76677 10.6988 3.24909 6.98843 2.93202 5.25975 5.57683 7.30551 7.58749 11.0449 3.56617 30.5499 18.1115 31.1692 32.0003 31.381 17.4922 32.8314 5.05386 29.9305 30.0637 16.8439 28.2812 30.4315 32.214 18.6264 32.5817 5.40663 31.8462 30.6541 18.2843 31.2728 32.0031 31.3844 17.6656 32.7334 5.29576 30.0354 7.51582 9.9007 7.68775 16.0337 15.8618 9.72877 24.3796 12.1137 7.34389 12.3476 23.2594 13.9028 24.8145 34.1711 15.4579 12.3916 24.5461 13.9603 26.1147 36.7006 15.5289 12.5418 23.433 13.9854 24.8766 34.3242 15.429 9.341 14.5336 8.87871 14.0713 19.7262 8.41642 7.8048 10.2176 8.23875 16.9388 16.5049 9.7836 25.6389 12.1964 7.37084 15.0517 21.2716 13.8147 20.0347 27.4916 12.5777 14.9661 21.6971 13.8249 20.5558 28.428 12.6836 15.1354 22.4575 13.8234 21.1454 29.7795 12.5114 10.3243 10.2097 9.83726 9.72268 10.0952 9.35021 10.3566 10.1329 10.7822 7.81362 7.38805 9.70733 4.84502 9.48358 9.93108 3.64837 2.41016 3.30532 2.06712 1.17196 2.96227 3.15943 2.13348 3.3986 2.37265 1.10753 3.63776 6.33754 8.76938 6.82911 9.26095 11.2012 7.32068 6.49025 8.7997 6.80363 9.11309 11.1092 7.11702 6.92089 8.98111 6.56762 8.62784 11.0413 6.21436 6.19857 8.87514 6.48873 9.16531 11.5517 6.7789 7.15908 9.01587 6.75832 8.61511 10.8727 6.35756 19.2776 18.7885 20.2033 17.8628 17.3738 18.3519 19.2738 18.8049 20.2497 17.8289 17.36 18.2978 10.4791 10.2189 10.5763 10.3162 9.95879 10.6736 1.56721 3.32797 1.56608 3.32685 5.08874 1.56495 1.46269 3.2343 1.73747 3.50909 5.00591 2.01226 7.24294 9.17308 7.03865 8.96879 11.1032 6.83437 3.53928 2.29912 3.35754 2.11737 1.05896 3.17579 3.53066 2.3173 3.28358 2.07022 1.10394 3.0365 31.5589 33.0129 31.9361 33.3901 34.4668 32.3134 5.23441 5.96459 6.69898 7.42917 6.69478 8.16356 3.10004 2.12481 3.36339 2.38817 1.14959 3.62675 3.0765 2.11156 3.32698 2.36204 1.14662 3.57746 13.2097 10.5694 12.2626 9.62228 7.92901 11.3155 10.3894 10.1866 10.223 10.0202 9.98379 10.0567 32.188 32.9796 32.2624 33.054 33.7712 32.3367 32.5197 32.1767 33.8245 33.4815 31.8336 35.1293 19.2387 17.8511 18.238 18.8518 17.4642 20.2395 6.73371 6.50264 5.01578 4.78471 6.27157 3.29785 3.57156 4.93308 5.12794 6.48946 6.2946 6.68433 6.6477 6.4514 5.19443 4.99813 6.25511 3.74116 6.64614 6.42634 5.16013 4.94033 6.20654 3.67412 9.3973 7.50678 9.99016 9.4839 8.89105 6.91392 8.97765 5.0234 8.80444 3.57569 4.85302 5.11998 6.39732 6.13036 6.66428 3.63216 5.11504 5.16003 6.6429 6.59791 6.68789 10.7437 10.6169 10.5795 10.4527 10.49 10.4153 10.4248 10.3546 10.4168 10.3627 10.2925 10.4328 8.80258 8.74258 9.28408 9.22408 8.68259 9.76558 11.6678 8.75405 12.3247 9.41085 5.84025 12.9815 12.0005 8.84424 12.654 9.49773 5.68801 13.3074 11.6191 8.74995 12.3349 9.46575 5.88077 13.0507 7.79142 10.5232 8.78836 11.5201 13.2549 9.7853 9.90697 11.5862 8.87364 10.5528 13.2653 7.84031 10.007 11.7875 8.90258 10.683 13.5679 7.79813 9.84662 11.6037 8.76468 10.5217 13.3607 7.68274 7.72256 10.4871 8.77534 11.5399 13.2517 9.82812 7.94638 10.5345 8.90921 11.4973 13.1227 9.87204 10.8872 10.8842 10.7252 11.0462 11.0431 11.0492 10.882 11.0307 10.8839 11.0288 11.0326 10.7352 10.8778 10.8766 10.7326 11.0218 11.0206 11.0231 6.95892 8.37221 9.11036 8.08888 5.93744 6.22077 7.0674 7.63406 4.80748 6.96406 8.38061 9.11741 8.09685 5.9435 6.22726 7.07628 7.64381 4.81072 7.0842 8.91765 9.20255 8.26944 6.1511 6.79931 7.33634 8.63276 4.96586 11.2807 11.2073 11.5397 11.4663 11.1339 11.7987 11.7283 11.5328 11.4744 11.2789 11.3373 11.2204 11.2821 11.1932 11.4928 11.4039 11.1044 11.7035 11.637 11.3948 11.4222 11.1799 11.1525 11.2074 11.7675 11.5412 11.5168 11.2905 11.3149 11.2661 11.1791 11.2362 11.4165 11.4736 11.2933 11.654 10.4813 10.4412 10.2493 10.2092 10.401 10.0173 10.6038 10.4734 10.6063 10.4759 10.3431 10.6088 15.9794 11.9562 16.2386 11.697 7.67376 15.7202 16.1496 11.8143 15.986 11.9779 7.64257 16.3132 16.2764 11.9211 16.1535 12.0441 7.6888 16.3994 12.9047 11.7235 13.8763 12.6951 10.5422 14.848 14.8617 12.7679 13.8637 11.7699 10.6742 12.8657 14.8882 12.7239 13.9309 11.7666 10.5597 12.9736 14.9474 12.8115 13.9161 11.7803 10.6757 12.8849 12.8881 11.7907 13.7933 12.696 10.6934 14.6986 12.9275 11.734 13.8932 12.6996 10.5405 14.8588 3.11727 6.44252 2.63431 4.55932 5.04227 6.92547 6.48432 10.2507 3.60022 3.30174 7.04019 2.91678 5.4399 5.82486 7.42515 7.96301 11.1636 3.6867 8.81337 14.6283 8.95696 14.7719 20.4432 9.10055 7.73831 10.1205 8.11704 17.1751 16.7964 9.74178 26.2332 12.124 7.35958 8.66885 14.63 8.85873 14.8199 20.5912 9.0486 12.3061 9.11836 12.2107 9.02302 5.93066 12.1154 11.395 9.06387 11.8943 9.56322 6.73273 12.3937 12.2825 9.06775 12.1858 8.97103 5.85299 12.0891 10.3533 9.4931 10.9238 10.0637 8.63295 11.4944 10.2915 9.47514 10.8933 10.077 8.65877 11.4952 10.3027 9.48076 10.8959 10.074 8.6588 11.4891 10.4122 10.2392 10.7293 8.03365 7.71655 9.92211 5.33798 9.74911 10.0951 10.3229 10.0917 10.7289 7.69626 7.29024 9.68568 4.6636 9.45448 9.91689 15.7081 11.6221 15.421 11.9092 7.82314 15.9952 12.2013 12.0878 12.7945 12.681 11.9742 13.3878 11.605 9.85852 12.4115 10.6651 8.11208 13.2181 12.2636 14.2233 14.5195 16.4792 16.1831 16.7753 16.7334 16.291 14.4738 14.0314 15.8486 12.2143 19.2278 18.8887 20.3135 17.8029 17.4639 18.142 12.2627 14.1666 14.5879 16.4917 16.0704 16.9131 16.9148 16.5555 14.5317 14.1724 16.1962 12.1485 16.9196 16.4952 14.5495 14.1252 16.0709 12.1795 12.1542 14.1851 14.484 16.515 16.2161 16.8139 1.58118 3.45612 1.59089 3.46583 5.33105 1.60061 16.067 11.9852 16.0713 11.9895 7.90338 16.0757 16.3176 12.2761 16.0948 12.0533 8.23461 15.872 8.55348 8.02496 8.67668 8.14816 7.49644 8.79988 8.59072 8.01073 8.71149 8.1315 7.43073 8.83227 8.33703 6.15517 5.91927 8.20956 10.6273 8.57294 10.4999 6.39107 10.7548 8.35105 6.16448 5.9337 8.22697 10.6443 8.58183 10.5202 6.39526 10.7684 8.34511 6.45474 5.95108 8.29386 10.6879 8.84877 10.6366 6.95841 10.7391 15.5369 11.7658 15.8803 12.1093 7.99482 16.2238 13.4731 13.4883 13.6912 13.7064 13.5036 13.9092 13.7327 13.567 13.604 13.4383 13.4013 13.4754 13.7814 13.5878 13.5985 13.4049 13.3942 13.4156 7.92562 9.96148 9.77461 11.8105 11.9973 11.6236 13.4309 13.4089 13.6543 13.6323 13.3869 13.8777 13.4235 13.4464 13.6539 13.6768 13.4693 13.8844 13.7602 13.549 13.581 13.3699 13.3379 13.4019 15.85 11.6068 15.6288 11.3856 7.36357 15.4076 16.2171 11.9992 12.1513 16.0649 7.93342 16.3692 7.96776 9.90662 9.75468 11.6935 11.8455 11.5416 7.81605 9.99758 9.56609 11.7476 12.1791 11.3161 18.472 17.6066 17.8329 18.2457 17.3803 19.1112 18.2765 17.657 17.7692 18.1643 17.5447 18.7838 8.58042 8.18319 8.72815 8.33092 7.78597 8.87588 12.1011 9.50995 13.8465 11.2553 6.91877 15.5919 12.1559 9.54939 13.8866 11.2801 6.94284 15.6173 7.28253 8.6667 6.90768 8.29185 10.0509 6.53283 7.27851 8.68341 6.98946 8.39436 10.0883 6.7004 10.0002 8.31725 8.6657 6.98273 6.63427 7.33118 16.16 12.1049 16.389 11.8759 7.82083 15.931 11.5446 9.84938 12.4546 10.7594 8.15413 13.3646 11.9396 8.14175 9.58229 11.2977 13.6551 10.4991 13.0132 6.70121 14.297 11.4406 9.60758 12.5079 10.6749 7.77459 13.5752 15.5383 11.2407 13.7721 9.47452 6.94319 12.0059 10.9145 10.542 10.8511 10.6054 10.2329 10.9778 10.762 10.6459 10.6423 10.5262 10.5226 10.5297 15.8202 11.91 15.8843 11.974 7.99977 15.9483 16.1305 12.0428 15.8725 11.7849 7.95516 15.6146 11.8392 12.7757 11.1216 12.0581 13.7121 10.4041 11.6654 12.7123 11.0388 12.0858 13.7593 10.4123 10.3984 12.1099 11.1066 12.8182 13.8215 11.8149 11.8222 12.8458 11.0988 12.1224 13.8693 10.3754 10.4042 12.1134 11.0949 12.8041 13.8226 11.7856 10.4758 12.0791 11.1636 12.7668 13.6824 11.8513 13.3826 11.0819 10.7212 8.42063 8.78132 8.05994 9.73334 9.8472 9.40696 9.52083 9.96107 9.08059 9.732 9.8545 9.42738 9.54988 9.977 9.12276 11.9653 10.1712 9.47315 7.67911 8.3772 6.98102 11.9146 10.1429 9.43608 7.66438 8.37123 6.95753 11.8893 10.1376 9.41108 7.65946 8.38603 6.9329 12.7179 18.2513 16.2802 21.8136 23.7848 19.8424 12.9614 18.3981 16.3848 21.8215 23.8348 19.8082 12.7088 18.244 16.2639 21.7991 23.7793 19.819 14.2074 15.0781 13.1654 14.0362 15.9488 12.1235 14.251 15.1174 13.1835 14.0498 15.9837 12.1159 12.3852 13.9394 13.4246 14.9789 15.4936 14.4641 8.7103 8.79737 8.17624 8.26332 8.88444 7.64219 18.6316 19.5874 19.3947 20.3505 20.5431 20.1578 18.6121 19.5817 19.383 20.3526 20.5513 20.1538 18.6374 19.5679 19.3857 20.3162 20.4984 20.1339 19.4019 21.6523 15.9818 18.2322 23.9027 12.5617 19.2694 21.5878 15.9621 18.2805 23.9061 12.6548 19.2855 21.5604 15.9383 18.2132 23.8353 12.5911 6.95988 8.09732 6.73511 7.87254 9.23475 6.51032 7.00895 8.13073 6.76008 7.88187 9.25252 6.51121 6.90538 8.06034 6.68691 7.84188 9.21531 6.46845 10.0409 10.6093 10.1302 10.6986 11.1776 10.2195 10.0491 10.6098 10.1355 10.6962 11.1704 10.2219 10.1417 10.6531 10.2188 10.7302 11.1645 10.2959 10.5403 10.3594 10.532 10.3512 10.1786 10.5237 11.8298 9.32267 13.6208 11.1137 6.81557 15.4119 8.05543 8.00887 12.2596 12.213 7.96231 16.4638 16.135 12.0373 12.3349 8.23716 7.93954 8.53478 7.55429 7.6122 9.62143 9.67934 7.67011 11.6886 8.38417 8.11267 12.4112 12.1397 7.84117 16.4382 9.1678 9.63557 10.4373 10.9051 10.1033 11.7069 8.83249 9.31129 10.2391 10.7179 9.79008 11.6457 9.14046 9.62018 10.4005 10.8802 10.0999 11.6606 11.7952 10.8479 10.3559 9.40859 9.90065 8.91654 11.7243 10.8081 10.3495 9.43337 9.89194 8.9748 11.7678 11.0259 10.1765 9.43466 10.284 8.58532 10.8799 10.5342 10.5926 10.8215 10.2468 10.9384 15.3705 11.1398 13.4922 9.26152 6.90912 11.6139 15.4154 11.174 13.5201 9.27869 6.93254 11.6248 12.0508 13.4764 14.4153 10.5743 8.20983 11.1119 6.73331 12.5374 9.68635 12.0402 13.4745 14.3986 10.5894 8.231 11.1161 6.7802 12.5504 9.6818 16.57 12.1464 12.258 7.83442 7.72289 7.94595 17.0739 17.4072 15.4063 15.7395 17.7404 13.7386 17.0978 17.4156 15.4205 15.7383 17.7333 13.7432 17.1147 17.4371 15.4464 15.7688 17.7596 13.7781 8.45245 9.06584 10.9551 11.0328 8.53011 6.56317 11.1104 7.17657 5.94978 8.49214 9.10349 10.9723 11.1023 8.62215 6.62338 11.2323 7.23472 6.01203 8.45223 9.0647 10.9536 11.0275 8.52616 6.56337 11.1014 7.17584 5.9509 9.45407 9.02357 8.864 6.90797 7.49804 9.61363 4.95194 9.18313 10.0441 7.61224 7.62764 9.58068 9.59607 7.64303 11.5491 8.07489 7.97086 12.173 12.069 7.86684 16.2711 7.07775 6.90686 6.09813 5.92725 6.73598 5.11851 1.42199 3.77699 4.41408 6.76908 6.132 7.40617 1.41524 3.7697 4.40518 6.75964 6.12416 7.39511 2.17658 3.84692 4.29856 5.96889 5.51725 6.42053 11.5619 9.50274 10.0788 8.01966 7.44361 8.5957 7.69935 7.5989 9.90983 9.80938 7.49844 12.1203 9.18693 8.63949 8.90948 8.36204 8.09205 8.63203 16.4184 12.0732 12.2762 7.93107 7.72811 8.13404 17.5231 14.9469 15.2329 12.6568 12.3708 12.9428 16.3486 16.9193 18.649 19.2197 17.4899 20.9495 21.5368 19.292 18.9335 16.6887 17.0473 16.3302 21.4438 19.1305 18.5698 16.2565 16.8172 15.6958 11.8946 9.42414 10.2698 7.79932 6.95368 8.64496 11.5153 9.52436 10.0493 8.05832 7.53338 8.58325 21.6267 21.9279 21.344 21.6452 22.229 21.0613 21.6057 22.0202 21.2944 21.7089 22.4346 20.9831 21.7039 21.921 21.4308 21.6479 22.1381 21.1576 10.8332 10.7624 10.6725 10.6017 10.5118 10.6915 3.7845 5.82213 3.51002 6.09661 8.13424 4.05898 4.56626 4.50209 7.25108 7.1869 4.43792 9.93589 20.8312 21.6395 21.7593 22.5676 22.4477 22.6875 20.7355 21.7099 21.6523 22.6268 22.6844 22.5691 20.8785 21.6378 21.7853 22.5446 22.3971 22.692 7.05328 7.94272 8.42662 9.31605 8.83215 9.79996 8.83316 9.27881 7.94042 8.38607 9.72446 7.04768 7.03904 7.93912 8.41104 9.31112 8.8392 9.78303 13.4526 13.0897 16.2337 15.8708 12.7267 19.0148 13.3216 13.3772 16.1323 16.1879 13.4329 18.943 7.37821 7.52749 5.91137 6.06065 7.67677 4.44453 4.44745 5.90858 6.05993 7.52105 7.3697 7.6724 10.0172 9.8749 8.72727 8.58493 9.73256 7.43729 9.94903 9.94309 8.74912 8.74319 9.93716 7.54922 9.96115 9.96195 8.75002 8.75083 9.96276 7.53889 10.8512 10.7175 10.7082 10.5745 10.5651 10.5839 16.3304 14.8543 15.273 13.7969 14.2156 13.3781 16.3106 14.8726 15.1664 13.7284 14.0222 13.4346 13.3809 12.6563 12.7165 11.9919 11.9317 12.0521 11.9268 12.0239 12.6642 12.7613 12.121 13.4016 12.454 10.1927 9.75245 7.49108 7.93131 7.05085 5.09963 5.03164 3.52367 3.45567 4.96365 1.9477 5.11685 5.06228 3.5545 3.49993 5.00771 1.99215 5.19632 5.16527 7.60621 7.57515 5.13421 10.0161 6.06145 5.8229 4.84623 4.97066 6.18588 7.03812 5.09509 6.79957 7.27667 6.07859 5.88525 4.81994 4.97589 6.23454 7.1439 5.13184 6.95057 7.33723 15.2475 16.2552 14.5107 15.5184 17.2629 13.774 15.2297 16.2356 14.499 15.5049 17.2415 13.7683 15.2483 16.2676 14.5289 15.5482 17.2869 13.8094 10.3454 10.4074 10.455 10.5171 10.4695 10.5647 13.188 13.2931 13.2094 13.3145 13.3982 13.2307 13.2394 13.4593 16.0709 16.2908 13.6793 18.9024 15.1002 13.6338 14.8329 13.901 13.3665 16.2993 2.55563 4.16752 4.50009 6.11199 5.77942 6.44456 17.5072 15.0273 15.3432 12.8633 12.5473 13.1793 18.6026 15.954 16.0927 13.4442 13.3054 13.5829 21.5242 19.0307 18.5443 16.0508 16.5371 15.5644 16.1639 16.7246 18.54 19.1007 17.2854 20.9161 8.69824 8.74193 9.23 9.2737 8.78563 9.76176 6.06089 5.8228 4.83613 5.02728 6.25204 7.04756 5.21843 6.80948 7.28565 8.6883 8.79051 9.23076 9.33296 8.89271 9.77322 11.5232 11.144 9.33285 8.13706 10.3275 13.3344 6.94126 12.9552 13.7136 7.60074 6.18885 5.98452 4.57263 4.77696 4.3683 4.37272 5.98466 4.57781 6.18974 7.5966 4.78289 13.7538 13.794 13.8454 13.8856 13.8342 13.937 13.5472 13.4819 13.4881 13.4228 13.4166 13.4289 4.4171 5.53005 6.3381 7.45106 6.64301 8.2591 6.2354 6.0562 7.24462 6.12523 5.11601 5.04697 5.00584 4.86777 5.22618 8.71042 7.957 7.87288 6.38648 5.54894 7.11946 7.03534 7.20359 4.06254 4.51357 4.53769 7.20487 7.22898 4.56181 9.89616 4.38621 7.02515 5.26304 6.14831 8.78725 3.50937 16.0276 16.6234 18.4688 19.0646 17.2192 20.91 16.151 15.8909 15.5447 15.2847 15.6309 14.9385 15.4591 15.2246 14.9331 14.6987 14.9901 14.4072 11.5945 11.0997 11.6358 11.141 10.6049 11.6771 11.7319 11.0517 11.5524 10.8722 10.3714 11.373 11.5451 11.0723 11.6105 11.1377 10.5996 11.6759 12.2198 9.95834 11.9804 9.71893 7.69683 11.741 11.7886 9.97646 11.5771 9.76495 8.16436 11.3656 10.8286 10.7399 10.6641 10.5753 10.4995 10.6512 4.97077 5.32406 7.48311 7.8364 5.67735 9.99546 4.31429 4.45549 7.10354 7.24475 4.5967 9.8928 4.57218 4.43317 7.24186 7.10285 4.29416 9.91154 8.48406 17.5923 9.06495 10.6182 10.0373 17.0114 12.1715 26.1196 7.90318 8.22825 17.5206 8.68112 10.3197 9.86686 17.0677 11.9583 26.3601 7.77538 14.393 14.8199 14.9063 15.3333 15.2469 15.4197 14.426 12.5068 20.695 18.7757 10.5875 26.9639 13.9364 12.2519 20.3635 18.679 10.5675 26.7906 11.846 9.92903 11.6369 9.71991 8.01207 11.4277 9.95693 9.76849 9.44956 9.26112 9.58005 8.94219 10.6841 12.2538 19.0206 20.5902 13.8234 27.3571 17.6071 15.6416 17.7686 15.8031 13.6761 17.9301 17.6165 15.6463 17.7898 15.8197 13.6762 17.9632 17.6117 15.6312 17.7833 15.8028 13.6506 17.955 11.3675 10.9204 18.6378 18.1907 10.4733 25.9081 6.47226 10.7669 9.42707 13.7217 15.0615 12.3819 6.48073 10.8373 9.59224 13.9488 15.1939 12.7037 6.5437 10.777 9.49154 13.7248 15.0103 12.4394 10.4781 10.9745 17.6386 18.135 11.4709 24.7991 1.4636 2.65423 1.72009 2.91072 3.84487 1.97658 1.4616 2.65279 1.72536 2.91654 3.84397 1.98911 9.94608 9.73488 9.47389 9.26269 9.52369 9.0017 1.40797 4.20891 1.72245 4.52339 7.00986 2.03692 1.38284 4.01013 1.67585 4.30314 6.63741 1.96886 1.37533 3.98506 1.67187 4.2816 6.5948 1.96841 9.9842 10.0113 10.3047 10.3318 10.0384 10.6252 10.4584 10.4194 10.4652 10.4262 10.3804 10.472 10.4657 10.4286 10.4883 10.4512 10.3915 10.5109 8.00332 8.02058 8.82386 7.08159 6.26106 7.20004 5.33933 7.2173 7.18279 12.4966 10.1293 9.83653 7.46924 7.76204 7.17645 8.71543 8.03089 7.88358 6.42313 5.59128 7.19904 7.05173 7.34636 4.13083 16.1407 14.7156 14.7173 13.2922 13.2939 13.2904 6.7179 5.85558 8.69924 7.83693 4.99326 10.6806 4.91747 7.80804 5.80055 8.69112 10.6986 6.68363 6.72975 5.86959 8.70321 7.84305 5.00943 10.6767 7.7382 17.493 7.91878 9.97953 9.79895 17.3124 12.0403 27.0672 7.55762 6.21314 6.12917 7.18528 6.01728 5.04515 5.15704 4.8493 5.07307 5.241 6.23209 6.0509 7.21984 6.1551 5.16736 5.06315 5.09037 4.88196 5.24434 10.8531 10.7253 10.6972 10.5693 10.5413 10.5974 9.86408 9.91607 10.3272 10.3792 9.96805 10.7903 7.79367 6.03073 7.81455 6.05161 4.26779 7.83544 18.665 19.5732 19.5254 20.4336 20.4814 20.3858 18.647 19.5337 19.5022 20.3889 20.4204 20.3574 18.6328 19.5573 19.5239 20.4485 20.4819 20.4151 9.97327 14.1805 14.4931 18.7003 18.3877 19.013 25.5478 24.7311 16.5642 15.7475 23.9144 7.58057 16.4741 12.6238 12.4492 8.59893 8.7736 8.42426 8.1868 8.37827 12.1826 12.3741 8.56975 16.1785 16.3412 12.5256 12.2549 8.43929 8.70993 8.16865 5.31477 5.12625 3.64347 3.45495 4.93773 1.97217 14.7468 13.2521 14.6566 13.3423 13.1618 16.1514 14.8685 13.3665 14.7094 13.5256 13.2074 16.2115 7.7649 6.01646 7.80604 6.0576 4.26802 7.84718 7.98123 6.11297 7.88303 6.01477 4.2447 7.78483 2.58774 4.11372 4.26845 5.79444 5.63971 5.94917 2.58381 4.12992 4.76922 6.31532 5.67602 6.95462 8.20955 10.4988 9.48626 11.7755 12.788 10.763 8.23361 10.5355 9.48173 11.7836 12.8374 10.7298 8.2396 10.5398 9.4832 11.7834 12.8399 10.7268 9.37285 9.07837 8.73027 8.43579 8.7839 8.08769 10.6527 7.81056 9.41334 6.57119 4.96841 8.17396 10.6711 7.8259 9.41177 6.56657 4.9807 8.15244 11.4793 8.26019 9.90512 6.68604 5.04111 8.33097 2.21498 2.22022 4.48652 4.49175 2.22545 6.75805 2.28038 2.20753 4.6996 4.62675 2.13467 7.11882 2.30515 2.27458 4.58563 4.55507 2.24401 6.86612 16.4796 12.6247 12.3935 8.5386 8.76981 8.3074 8.26574 8.5261 12.3246 12.585 8.78646 16.3834 8.35163 8.61626 12.4103 12.6749 8.8809 16.4689 13.7822 10.639 15.5783 12.435 7.49572 17.3743 13.7739 15.6105 10.6036 12.4403 17.4472 7.43334 13.9062 15.6584 10.6584 12.4106 17.4107 7.41059 13.5529 10.3855 15.1665 11.9992 7.21819 16.7802 13.9889 10.6966 15.6902 12.3979 7.40428 17.3915 13.3676 15.1225 10.3816 12.1365 16.8774 7.39569 3.11704 5.38025 2.63005 6.49699 6.98398 5.86723 10.3639 8.13044 3.60402 3.02415 5.40391 2.57459 6.38938 6.83894 5.85348 10.2042 8.23324 3.47371 9.83081 9.89235 9.49052 9.55206 9.95389 9.15023 24.5634 24.1773 16.0382 15.652 23.7912 7.51293 9.24205 9.20109 8.66184 8.62089 9.16013 8.08164 7.0485 6.9775 6.05159 5.9806 6.90651 5.05469 6.93845 7.00863 6.01918 6.08935 7.0788 5.09991 9.15042 9.17609 9.56299 9.58866 9.20176 9.97556 10.1744 10.2309 10.3753 10.4319 10.2875 10.5763 3.09646 5.45789 2.5567 6.37212 6.91188 5.99765 10.1875 8.35907 3.63622 8.47181 15.8876 8.30997 15.7257 23.3033 8.14813 7.40531 7.49463 8.04138 8.13071 7.58396 8.67746 7.43097 7.32371 8.08685 7.97959 7.21646 8.74273 8.02992 6.27456 7.25691 7.22614 7.99915 7.04756 7.19537 5.2922 8.80292 9.02374 9.12781 9.65565 9.75972 9.23189 10.2876 11.3776 9.85219 8.36518 6.83976 8.32677 5.35276 11.6593 10.0202 8.51089 6.87174 8.381 5.36249 11.3653 9.83292 8.35749 6.82511 8.30054 5.34969 7.92175 5.53675 7.10337 7.29841 8.11678 6.35512 7.49345 3.97013 8.74012 8.02496 8.05 8.83245 7.03968 6.23218 7.24251 5.2469 7.26755 7.21746 8.83002 7.91228 7.94398 6.39547 5.50943 7.02624 7.05794 6.99454 3.96092 12.0332 13.751 9.2733 10.9912 15.4689 6.51343 10.395 13.0811 8.62294 11.3091 15.7672 6.85089 12.0435 13.7355 9.25707 10.9491 15.4275 6.47064 5.98287 4.95576 4.67192 5.57062 6.88157 6.26671 6.46932 5.2396 7.29381 10.0743 10.0451 10.3885 10.3593 10.0159 10.7026 5.12656 4.73689 7.57824 7.18856 4.34721 10.0299 6.83415 6.15989 7.16848 6.49422 5.48563 7.50281 7.02028 6.519 7.37029 6.86901 6.01773 7.7203 9.53417 15.0949 9.67536 15.2361 20.6556 9.81655 10.3598 9.92781 10.0541 6.99895 7.30466 10.2335 3.94376 9.80148 10.6656 10.4343 10.2242 10.7602 7.76978 7.44391 9.89836 4.77938 9.68829 10.1084 10.4104 9.94404 10.0952 7.42473 7.73994 10.2593 4.75422 9.79284 10.7257 10.3284 10.1076 10.7058 7.37658 6.99918 9.73018 4.04741 9.50942 9.95095 10.4101 10.0418 10.1335 7.43472 7.71131 10.3184 4.73593 9.95017 10.6867 10.5897 10.3423 10.7049 10.4575 10.0948 10.8201 10.2038 9.92359 9.51823 9.23805 9.64341 8.83269 5.89066 4.84319 4.57635 5.59195 6.90626 6.15751 6.60755 5.11004 7.20497 5.93895 4.99129 4.66508 5.52978 6.80364 6.26515 6.39448 5.31749 7.21281 9.51622 15.8767 9.78905 16.1495 22.2371 10.0619 9.03486 13.6213 14.791 19.3774 18.2077 20.5471 26.0744 24.982 16.8133 15.7209 23.8897 7.55222 8.87715 13.6894 14.8009 19.6132 18.5016 20.7247 24.0683 27.5322 26.8935 30.3574 30.9961 29.7188 1.51954 2.68242 1.79504 2.95791 3.84529 2.07053 10.1369 11.1276 17.5889 18.5795 12.1182 25.0409 10.2046 11.2046 17.681 18.681 12.2047 25.1573 9.53432 9.2047 8.81023 8.48061 8.87508 8.08613 9.21703 9.57631 9.44133 9.8006 9.93559 9.66562 7.14915 4.73215 7.14944 4.73244 2.31515 7.14973 3.72771 5.78237 2.90171 6.60837 8.66303 4.55372 7.39428 7.64281 8.16037 8.40891 7.89135 8.92647 10.4396 10.4313 10.4895 10.4812 10.4231 10.5393 13.9937 12.2707 20.319 18.596 10.5477 26.6444 8.10913 7.17198 7.10404 8.17707 7.23992 9.11423 8.11767 7.18604 7.11353 8.19019 7.25856 9.12182 11.4689 10.8456 18.6001 17.9767 10.2222 25.7313 9.30222 10.1137 10.2321 11.0436 10.9251 11.1621 9.43172 10.3249 10.3564 11.2496 11.218 11.2811 9.4369 10.3266 10.3504 11.2402 11.2164 11.264 1.96453 4.17429 1.7646 3.97436 6.38406 1.56467 1.76122 3.85465 1.67853 3.77196 5.94809 1.59584 8.98253 10.4923 9.39128 10.9011 12.0021 9.80002 31.6496 33.5075 29.8988 31.7567 35.3654 28.148 24.6527 28.2867 27.0162 30.6502 31.9206 29.3797 9.87262 10.0451 9.56041 9.73288 10.2176 9.2482 10.517 10.4535 10.3342 10.2707 10.39 10.1514 10.6252 12.9363 12.8188 15.1299 15.2473 15.0124 11.2487 13.0668 12.4338 14.2519 14.8849 13.6189 10.5967 12.896 12.739 15.0383 15.1953 14.8814 1.77822 3.87246 1.68004 3.77429 5.96671 1.58186 3.82211 6.74298 4.79278 5.77232 8.69319 2.85144 6.87322 8.21409 9.4534 10.7943 9.55496 12.0336 7.05046 8.30314 9.53254 10.7852 9.55582 12.0146 6.97954 8.25803 9.51871 10.7972 9.53652 12.0579 6.3481 6.65762 7.49734 6.30084 5.1516 5.50838 5.10435 5.8179 5.19885 6.17194 6.23954 7.17047 6.13214 5.13361 5.24101 5.09381 5.30861 5.17341 6.17078 6.2329 7.18988 6.13512 5.11602 5.2138 5.08036 5.27592 5.15168 10.5867 10.4566 10.5894 10.4593 10.3265 10.592 10.5323 10.4976 10.3226 10.2879 10.4628 10.113 8.39528 5.17666 8.34086 5.12224 1.95804 8.28644 8.19341 5.0696 8.19275 5.06894 1.94578 8.1921 8.1981 9.99087 9.00508 10.7978 11.7836 9.81206 8.2016 10.0002 9.00675 10.8053 11.7987 9.81189 9.84456 11.8316 18.5102 20.4973 13.8186 27.1759 11.6913 11.3593 18.6325 18.3005 11.0274 25.5737 10.5244 10.4552 10.3465 10.2772 10.386 10.1685 4.40332 4.92017 7.36268 7.87953 5.43701 10.322 4.34671 4.96935 7.19826 7.8209 5.592 10.0498 4.61093 4.08199 7.28104 6.7521 3.55305 9.95115 3.61832 4.12824 6.77512 7.28504 4.63816 9.93191 5.45494 6.45587 5.16677 6.1677 7.4568 4.8786 7.16084 6.01886 7.39099 6.24901 4.87687 7.62115 7.20633 6.09485 7.46858 6.35709 4.98336 7.73083 10.8138 10.8908 10.9758 11.0528 10.9678 11.1378 10.8238 10.902 10.9843 11.0625 10.9802 11.1448 10.7608 10.8421 10.9394 11.0207 10.9234 11.118 3.28835 3.18158 4.47555 7.57501 6.38781 1.99438 10.6745 1.88762 2.10115 3.35755 3.20851 4.66754 7.58288 6.2729 1.89852 10.4982 1.74947 2.04756 3.37607 3.22744 4.68566 7.57479 6.2652 1.91786 10.4639 1.76923 2.06648 11.5798 10.4662 12.2266 11.113 9.35261 12.8735 11.9566 10.5218 12.4309 10.9961 9.08702 12.9052 11.88 10.4784 12.3284 10.9268 9.07689 12.7767 9.74579 11.7418 18.6931 20.689 13.7378 27.6403 10.419 10.0527 10.8641 10.4978 9.68643 11.3093 10.1778 9.98161 10.9713 10.7751 9.78539 11.7648 10.4595 10.0766 10.8884 10.5055 9.69362 11.3174 10.3546 10.3972 10.4558 10.4985 10.4399 10.5571 13.5976 11.0098 10.695 8.10723 8.42202 7.79244 3.90359 5.71577 3.0642 6.55516 8.36734 4.74298 7.18053 6.04896 7.3809 6.24933 4.91739 7.58127 13.5957 13.8714 12.6027 12.8783 14.147 11.6097 15.1442 15.195 13.0178 13.0686 15.2459 10.8913 13.7887 13.9799 12.715 12.9063 14.1711 11.6414 5.68943 3.84842 6.22659 4.38557 2.0074 6.76375 5.67975 3.83745 6.1186 4.2763 1.99516 6.55745 5.67606 3.82726 6.10408 4.25529 1.97847 6.5321 3.26338 7.39911 4.35552 2.94192 1.84979 6.30697 1.52832 10.4427 2.17125 9.1674 9.64035 9.51939 9.99234 10.1133 9.87138 11.757 10.3233 11.7275 10.2939 8.8897 11.6981 11.2404 7.50989 11.1079 7.37739 3.77942 10.9754 11.4398 7.25267 11.33 7.14286 3.06557 11.2201 11.2298 7.48914 11.1046 7.36395 3.74852 10.9794 8.71936 9.35881 9.23774 9.87719 9.99825 9.75612 7.101 6.18194 6.96051 6.04145 5.26289 6.82002 8.69972 9.33991 9.24551 9.8857 9.9801 9.7913 4.02674 2.74076 5.07265 3.78666 1.45477 6.11855 9.14365 8.1961 8.21102 7.26348 7.24855 7.2784 6.70736 6.75162 8.94666 8.99092 6.79589 11.186 6.93173 6.89798 9.05862 9.02487 6.86423 11.1855 6.94605 6.87002 9.04912 8.9731 6.794 11.1522 6.56302 6.75164 8.85966 9.04829 6.94027 11.1563 6.8064 6.85046 8.97887 9.02293 6.89452 11.1513 6.7844 6.83145 8.97575 9.0228 6.87851 11.1671 3.90273 6.45803 4.67666 5.6841 8.2394 3.1288 5.18782 6.56043 6.34687 7.71949 7.93305 7.50593 6.00147 6.96944 6.86121 7.82917 7.9374 7.72095 7.5261 5.6367 7.57495 5.68555 3.74731 7.62379 32.7168 33.2582 32.3782 32.9195 33.7995 32.0396 31.0027 31.8871 32.6046 33.489 32.7716 34.2065 3.88711 5.82361 3.12809 6.58263 8.51913 4.64613 4.0332 6.63088 4.70701 5.95707 8.55475 3.35938 5.56864 6.61043 5.23488 6.27667 7.65221 4.90112 5.38687 6.43874 5.10152 6.1534 7.49061 4.81618 7.46688 5.85141 7.66227 6.04679 4.23593 7.85765 7.63488 5.70927 7.62474 5.69912 3.78365 7.6146 8.76397 8.06488 8.91586 8.21678 7.3658 9.06776 9.72486 11.1881 8.61482 10.0781 12.6513 7.50478 9.67977 11.1523 8.59728 10.0698 12.6248 7.51479 30.8745 32.2637 32.5227 33.9119 33.6529 34.1709 12.8152 9.8592 11.6151 8.65907 6.9032 10.4149 12.9259 10.0152 11.4781 8.56734 7.10445 10.0302 12.9229 10.0121 11.484 8.57322 7.10128 10.0452 5.22771 6.09189 5.31002 6.1742 6.95607 5.39233 9.03612 8.90713 8.10103 7.97204 8.77814 7.16595 9.2049 8.87665 8.37259 8.04434 8.5484 7.54028 18.3123 14.3599 19.8935 15.9411 10.4075 21.4747 18.5421 14.3877 19.3904 15.2361 10.2333 20.2388 26.7654 17.44 25.4924 16.167 8.11457 24.2195 3.01245 5.75132 3.53979 6.27866 8.4902 4.06712 12.0588 10.8204 10.9227 9.68426 9.58196 9.78655 12.0732 10.8143 10.9043 9.64552 9.55551 9.73553 12.0552 10.8148 10.921 9.68064 9.57443 9.78685 32.1194 33.6032 29.7279 31.2117 35.087 27.3363 30.8115 17.7706 30.251 32.0729 32.6334 18.3311 33.8948 5.29014 31.372 29.7419 18.9508 31.2709 31.1097 29.5808 17.4218 30.9486 6.6307 28.213 3.30105 7.37049 4.37374 2.90347 1.83078 6.2978 1.4332 10.3672 2.22837 3.29812 7.37106 4.3654 2.90178 1.8345 6.30378 1.43817 10.3767 2.23084 27.0592 17.4156 25.3787 15.7351 7.77192 23.6982 6.72851 4.32034 4.25185 1.84367 1.91216 1.77519 24.1025 28.3671 26.7693 31.034 32.6318 29.4361 31.5574 32.9143 29.63 30.987 34.2713 27.7027 4.77854 6.33499 4.62152 6.17797 7.89145 4.4645 19.2361 13.804 21.1356 15.7035 8.37189 23.0351 26.8465 17.3942 25.8397 16.3874 7.94183 24.8329 30.9609 17.9254 30.1899 31.9516 32.7226 18.6965 33.7133 5.66099 31.7319 8.7466 8.08791 8.8907 8.23202 7.42922 9.03481 10.3757 8.54418 11.9026 10.0711 6.71268 13.4296 10.6802 8.72174 12.1518 10.1934 6.76333 13.6235 10.3199 8.53457 11.8659 10.0806 6.74927 13.4119 8.00288 8.34918 10.9989 11.3451 8.69547 13.9948 30.0975 30.5346 28.3678 17.2533 18.983 32.2642 6.13873 32.7013 31.8272 7.94339 7.53029 6.74161 6.32852 7.1172 5.53984 8.07264 8.68128 12.1988 12.8074 9.28992 16.3249 16.2831 13.0308 11.9943 8.74195 9.77847 7.70544 8.07145 8.59047 12.2751 12.7941 9.10949 16.4788 1.75055 4.03656 3.37494 5.66096 6.32257 4.99934 1.82917 3.85859 3.36837 5.39778 5.888 4.90757 11.0754 7.02122 10.7916 6.73748 2.96708 10.5079 11.0845 7.06054 10.7215 6.69751 3.03655 10.3585 10.9828 7.02873 10.6589 6.70486 3.07464 10.3351 1.86925 4.44971 2.97294 5.55341 7.03018 4.07663 1.87155 4.44915 2.97525 5.55285 7.02675 4.07894 27.7611 29.5915 29.0332 30.8636 31.4219 30.3053 7.77897 7.62819 8.33367 8.18289 7.4774 8.88837 24.8074 28.3631 27.5728 31.1285 31.9188 30.3382 33.8471 33.9385 30.4173 30.5088 34.03 26.9876 4.17864 14.1691 13.2989 23.2894 24.1596 22.4191 25.6534 29.3225 24.6548 28.3239 32.9915 23.6562 21.2557 22.1579 15.0647 15.9669 23.0601 8.87362 5.2081 14.5393 13.7817 23.1129 23.8705 22.3553 7.41227 4.56262 4.86445 2.01479 1.71297 2.31662 7.39433 4.55901 4.88302 2.0477 1.72369 2.3717 9.4011 8.75241 8.9983 8.3496 8.10371 8.5955 1.82597 3.85742 3.43818 5.46963 5.88888 5.05038 16.2253 12.1775 12.0182 7.97046 8.12972 7.81121 7.50013 7.76684 8.38884 8.65555 8.03355 9.27756 21.0767 25.7089 21.5586 26.1908 30.3412 22.0405 25.946 29.021 24.878 27.9531 32.0961 23.8101 6.07955 6.43403 3.93662 4.29111 6.78852 1.79369 7.85087 7.45033 6.67882 6.27828 7.04979 5.50676 5.60243 7.16756 4.46728 6.03241 8.73269 3.33212 29.9959 30.5117 28.3741 17.2597 18.8814 32.1334 6.14521 32.6493 31.6176 8.86772 8.4642 8.09958 9.23235 7.69606 8.5031 20.4207 20.3572 14.9899 14.9264 20.2937 9.55903 6.09836 14.5425 14.4867 22.9308 22.9867 22.875 9.79019 9.83401 10.3329 10.3768 9.87784 10.8757 20.4904 20.9834 14.9658 15.4588 21.4765 9.44121 9.76036 9.81884 10.2786 10.3371 9.87733 10.7969 32.4596 28.5642 32.6073 28.7118 24.6688 32.7549 31.4088 26.9112 30.48 25.9824 22.4135 29.5512 6.37767 4.03845 5.48495 3.14573 1.69923 4.59223 7.646 8.87037 5.9757 7.20007 10.0947 4.30541 7.16832 8.29326 5.82953 6.95447 9.41819 4.49074 7.16429 8.27679 5.83196 6.94445 9.38928 4.49962 32.3091 28.6233 33.0781 29.3923 24.9375 33.8472 7.33656 6.43124 5.02837 4.12304 5.52591 2.72017 7.65865 6.59548 5.14545 4.08227 5.53231 2.63224 5.81931 6.38626 3.75808 4.32503 6.95321 1.69685 6.38134 6.6378 4.07756 4.33402 6.89426 1.77378 12.116 9.53805 11.4689 8.89101 6.96014 10.8219 12.1187 9.54921 11.4755 8.90599 6.97973 10.8323 12.2201 9.51233 11.5592 8.85137 6.80454 10.8982 8.85057 8.26793 8.07957 9.03893 7.49693 8.66222 3.47426 5.62521 4.03357 5.06591 6.18451 1.88262 4.89555 6.2185 4.82406 6.147 7.54144 4.75256 5.42485 6.94866 5.91572 7.43952 8.47247 6.40658 7.35157 6.42462 5.04635 4.1194 5.49767 2.74112 7.7762 5.15387 4.70804 2.08571 2.53153 1.63988 7.57475 5.05086 4.60636 2.08246 2.52696 1.63796 7.99428 8.29491 11.0138 11.3144 8.59554 14.0333 7.73856 8.42694 11.9152 12.6036 9.11532 16.0919 5.5414 6.39617 6.72093 7.5757 7.25094 7.90046 4.42703 6.39127 4.65387 6.61812 8.35552 4.88072 7.05223 4.42679 4.65236 2.02692 1.80134 2.25249 29.8584 31.553 26.2673 27.9619 22.6762 33.2477 29.8482 31.417 26.1972 27.766 22.5463 32.9857 10.0974 6.34571 10.8473 7.09566 2.59406 11.5973 9.99063 6.28826 10.6693 6.96695 2.5859 11.348 9.98188 6.27964 10.6593 6.95708 2.57741 11.3368 4.50523 3.2208 4.24203 2.9576 1.93637 3.97883 4.50724 3.21924 4.24387 2.95587 1.93124 3.98051 7.46241 6.75134 6.3221 7.89165 5.61103 7.03317 7.19732 7.33027 4.27262 4.40557 7.46322 1.34792 6.81834 7.03964 4.08183 4.30312 7.26093 1.34531 7.21814 7.34236 4.27603 4.40026 7.46659 1.33392 8.06495 8.52144 6.6224 7.07889 8.97792 5.17985 7.66999 8.09244 10.7624 11.1848 8.51489 13.8548 16.3852 12.4822 12.2145 8.31146 8.57909 8.04383 32.7248 32.2159 30.0124 29.5035 31.7071 27.2999 4.93588 6.57316 5.12444 6.76173 8.21044 5.31301 6.41346 6.81353 5.04808 8.17891 8.57899 7.77883 2.1255 3.53096 4.08943 5.4949 4.93642 6.05337 30.8589 32.6258 31.3362 18.4781 18.0008 32.1485 5.61998 33.9155 30.3816 23.7169 26.6341 27.1588 30.076 29.5514 30.6007 32.5593 32.7765 29.5253 29.7425 32.9937 26.4913 9.68199 10.9785 8.2812 9.57767 12.2749 6.88042 8.36626 7.60248 10.2648 9.50101 6.8387 12.1633 2.10325 3.53104 4.06857 5.49636 4.95883 6.03388 10.567 10.2044 10.7288 10.3662 9.84172 10.8907 28.7694 29.0973 33.0622 24.8045 33.3901 32.7344 10.6205 10.5004 10.6329 10.5128 10.3804 10.6453 7.64776 9.71674 7.87562 9.9446 11.7857 8.10348 11.8002 9.95308 9.72606 7.87894 8.10595 7.65192 6.86067 6.20609 7.35834 6.70375 5.5515 7.85601 11.4299 10.6122 10.9713 10.1536 9.79454 10.5127 11.3974 10.6194 10.9868 10.2088 9.84144 10.5762 11.3908 10.6168 10.9793 10.2053 9.84273 10.5678 10.6472 10.325 10.7028 10.3807 10.0029 10.7585 21.9077 26.8163 21.999 26.9076 31.7249 22.0902 4.55114 3.22253 4.18652 2.85791 1.89393 3.8219 11.5163 9.57732 11.9003 9.9613 7.6383 12.2843 12.2643 11.8866 9.95506 9.5774 11.5089 7.64587 22.01 26.9753 22.9303 27.8956 31.9405 23.8506 25.9622 29.5152 25.0921 28.6451 33.0683 24.222 10.5553 10.1756 10.7101 10.3303 9.79581 10.8648 8.05477 6.86193 7.57285 6.38 5.66908 7.09092 7.52333 7.84443 7.66519 7.70257 8.02367 7.38147 4.02838 6.12375 3.9882 6.08358 8.21913 3.94803 33.1941 33.8522 32.7165 33.3746 34.5102 32.2389 33.9301 33.7015 32.99 32.7615 33.473 32.0499 9.04737 9.75501 9.4652 10.1728 10.4627 9.88303 4.52676 6.07157 4.91211 6.45692 7.61638 5.29746 3.80366 5.77889 3.9613 5.93653 7.75411 4.11895 8.68636 6.94954 7.88576 6.14894 5.21273 7.08515 7.58853 6.21151 7.24692 5.86989 4.83448 6.9053 10.5903 10.2071 10.7629 10.3796 9.82389 10.9354 7.31268 7.46776 7.08426 7.69618 7.85126 7.5411 11.7007 11.5613 10.8903 10.751 11.422 10.0799 11.7165 11.6181 10.8942 10.7958 11.5197 10.0719 11.3405 11.1254 11.0059 10.7908 10.9103 10.6713 8.75804 8.14853 9.07088 8.46137 9.38373 7.53902 34.2165 34.7515 33.4358 33.9708 35.2864 32.6551 5.35062 6.70051 4.28044 5.63034 8.0504 3.21027 5.18594 6.18238 4.28342 5.27987 7.17883 3.38091 3.59301 5.49277 4.60868 6.50843 7.39252 5.62434 3.74891 5.45782 4.558 6.2669 7.16672 5.36708 3.51724 5.52248 4.56034 6.56557 7.52771 5.60343 5.42583 6.36724 4.32984 5.27125 7.30865 3.23386 4.55407 5.33609 5.26183 6.04385 6.11811 5.96959 4.4793 5.22463 5.0895 5.83482 5.96995 5.6997 5.61842 5.93874 4.96247 5.28279 6.25907 4.30652 6.08524 6.2113 5.15484 5.28091 6.33737 4.22445 5.70037 6.04552 5.03467 5.37982 6.39068 4.36896 4.54746 5.35492 5.01118 5.81864 6.16238 5.4749 13.5055 13.4647 15.6864 15.6456 13.4239 17.8673 13.5024 13.4612 15.7079 15.6668 13.4201 17.9135 13.4748 13.4558 15.6838 15.6648 13.4368 17.8929 9.68553 9.9959 9.32899 9.63935 10.3063 8.97244 5.82093 5.72837 6.89354 4.65576 6.80097 6.98611 8.24372 10.4668 10.55 12.773 12.6898 12.8562 8.0936 10.395 10.4417 12.7431 12.6964 12.7898 8.25834 10.4771 10.5597 12.7785 12.6959 12.8611 5.57044 5.38504 6.74271 4.21277 6.55731 6.92812 7.95026 6.56005 7.56085 6.17064 5.16983 7.17144 7.11145 9.66556 7.36099 9.9151 12.2197 7.61052 7.13946 9.68225 7.38123 9.92403 12.225 7.623 6.8307 9.55769 7.13272 9.85971 12.2847 7.43474 4.15635 5.69781 4.28089 5.82235 7.23927 4.40543 13.3145 12.574 13.2307 12.6578 11.9174 13.3982 13.4819 13.3027 13.4166 13.368 13.1887 13.5472 13.7538 13.5608 13.794 13.601 13.3679 13.8342 17.5549 10.8938 12.1338 5.47269 4.23262 6.71275 6.63815 5.43447 12.078 10.8743 4.23078 17.5178 17.627 10.864 12.0682 5.30521 4.10097 6.50945 7.4304 8.24634 12.2202 13.0362 9.06228 17.0101 6.72227 5.56883 11.7429 10.5894 4.4154 16.7635 17.1307 10.6325 11.9162 5.41797 4.13428 6.70166 5.83496 5.07253 10.6906 9.92815 4.3101 15.5462 15.4857 9.97175 10.5889 5.07492 4.45775 5.69209 5.72462 4.996 10.6583 9.92971 4.26737 15.5921 4.31129 5.61122 6.16694 7.46687 6.91114 8.02259 15.1606 9.82521 10.4164 5.08101 4.48982 5.67219 5.90148 5.03843 10.742 9.87899 4.17537 15.5826 9.06485 8.28418 8.79675 8.01608 7.50351 8.52865 13.4166 13.3027 13.5511 13.4372 13.1887 13.6856 13.8342 13.601 13.9865 13.7533 13.3679 14.1387 7.32673 7.52101 7.16843 7.36271 7.7153 7.01013 11.0222 7.62535 11.6293 8.23247 4.22847 12.2365 5.07097 6.5496 5.19647 6.6751 8.02824 5.32197 4.55301 6.43444 4.34025 6.22167 8.31586 4.12748 4.13479 6.22639 4.25613 6.34773 8.31799 4.37747 18.5032 8.98462 17.872 9.6158 8.35344 27.3906 6.8901 6.6818 5.61579 5.40749 6.4735 4.34149 13.5299 12.7236 13.4641 12.6578 11.9174 13.3982 12.3808 8.3167 11.7968 7.7327 4.25263 11.2128 12.493 8.38346 11.8357 7.72615 4.27395 11.1784 12.4167 8.5389 12.7577 8.87994 4.66112 13.0988 12.3403 8.52789 12.8421 9.02966 4.71547 13.3438 7.14046 4.44282 5.8749 3.17726 1.74519 4.60934 7.13864 4.4443 5.8674 3.17306 1.74996 4.59616 7.20685 7.51669 5.89229 6.20213 7.82653 4.57773 6.875 6.85443 7.35496 7.33439 6.83386 7.83493 7.01711 7.31357 7.28369 7.58015 7.61003 7.55027 7.40678 7.34868 7.37834 7.32024 7.29058 7.34989 12.6127 8.5925 12.0582 8.03804 4.57233 11.5038 18.2371 8.88263 17.9937 9.12606 8.63919 27.3482 6.90474 6.87142 7.37584 7.34253 6.83811 7.84695 7.0347 6.94614 7.22118 7.13262 6.85758 7.40765 7.01622 7.30514 7.23718 7.5261 7.59406 7.45814 5.82208 8.82742 6.04093 8.60856 9.04627 3.03559 4.63095 6.44158 4.4165 6.22713 8.25221 4.20204 5.60599 6.37564 6.29412 7.06376 7.14529 6.98224 6.79107 6.61072 5.55205 5.3717 6.43037 4.31303 5.69428 7.1934 6.47589 7.97501 8.69251 7.2575 6.18979 9.12955 6.67169 8.64765 9.61145 3.73192 4.4047 6.81212 5.91042 8.31784 9.21954 7.41613 7.18178 8.34201 5.79642 6.95665 9.50225 4.41106 5.62448 6.33392 6.33256 7.042 7.04335 7.04065 5.66334 6.98545 6.45198 7.77409 8.30757 7.24062 4.77902 7.0143 6.10549 8.34077 9.24958 7.43196 4.32544 6.6122 5.7667 8.05346 8.89897 7.20796 5.59724 6.35086 6.30473 7.05835 7.10448 7.01223 6.90286 6.74415 5.56118 5.40247 6.58544 4.2195 4.11187 5.25832 5.50821 6.65465 6.40476 6.90454 33.8123 32.8264 32.8132 31.8273 31.8405 31.8141 32.3109 33.1895 32.3069 33.1856 34.0682 32.303 5.58689 6.79843 6.33179 7.54334 8.00998 7.0767 7.37847 7.91171 5.86492 6.39816 8.44496 4.35136 34.1574 33.1787 33.0551 32.0763 32.1999 31.9527 6.12326 5.9982 2.65022 9.47124 9.34618 9.5963 5.62213 6.11533 2.65364 9.08382 9.57701 8.59063 3.29291 6.28736 5.97572 8.97017 9.28182 8.65853 17.2631 9.06467 17.6661 8.66168 9.46766 25.8645 3.79902 5.70188 2.96825 6.53265 8.4355 4.6298 5.02693 4.67838 7.55588 7.20734 4.32984 10.0848 9.93042 10.0526 9.7416 9.86378 10.1748 9.55278 5.11049 7.12581 5.29846 6.93784 8.95317 4.92252 7.82382 7.40702 6.45916 6.04237 6.99023 5.09451 2.89797 5.88073 4.01918 7.00195 8.8635 5.14039 4.69728 6.33392 4.5534 6.19004 7.97055 4.40952 9.47278 7.52875 10.0707 9.6416 9.04363 6.93079 9.21246 4.98677 8.87481 8.06748 8.33455 8.81845 9.08552 8.60162 9.56941 6.37724 6.95437 5.1268 8.20482 8.78194 7.62769 4.559 6.03232 4.92932 6.40263 7.50564 5.29963 9.92543 9.76904 10.1122 9.5823 9.42592 9.73869 18.4991 9.16098 18.0963 9.56379 8.75817 27.4345 14.2694 11.5431 10.9904 8.26409 8.81676 7.71142 7.30599 7.61611 8.1472 8.45732 7.92624 8.98841 12.7414 10.2232 9.99455 7.47643 7.70512 7.24775 9.14354 9.20121 9.54684 9.60451 9.25888 9.95014 13.397 10.567 12.2223 9.39227 7.73689 11.0477 6.05619 9.18163 9.16004 6.07777 9.20321 2.95234 8.90653 17.3824 8.85373 17.3296 8.80092 25.8582 8.89088 8.98947 15.8979 15.9965 9.08807 22.9049

VECTORS Displacement float
 0.0661837 -1.55843 0.0838504 0.0589052 -1.56559 0.0853716 0.0464315 -1.58238 0.0621862 0.0619302 -1.55819 0.0805077 0.0767206 -1.53044 0.100753 0.075407 -1.53948 0.108661 0.0653833 -1.53384 0.0898649 0.0654993 -1.5551 0.101369 0.0867792 -1.52709 0.111062 -0.106129 -1.55843 0.0151823 -0.104109 -1.56548 0.00844667 -0.0781692 -1.58207 0.00938074 -0.101008 -1.55818 0.0131242 -0.125534 -1.53029 0.0157746 -0.13219 -1.53942 0.0108468 -0.110225 -1.53366 0.0114001 -0.121181 -1.5549 0.00607072 -0.13961 -1.52697 0.0193171 0.0396799 -1.55867 -0.0993296 0.044602 -1.56576 -0.0937566 0.0306998 -1.58263 -0.0715319 0.0389308 -1.55843 -0.0939595 0.0490941 -1.53069 -0.116865 0.0566187 -1.5397 -0.119685 0.0453456 -1.5341 -0.1016 0.0553439 -1.55532 -0.107557 0.0529822 -1.52734 -0.130733 0.0667061 -1.55848 -0.0843737 0.075971 -1.53938 -0.109083 0.0868375 -1.52706 -0.111266 0.0767978 -1.53038 -0.100864 0.0624885 -1.55816 -0.080818 0.0600215 -1.56681 -0.0859315 0.0654607 -1.53375 -0.0898925 0.0677427 -1.55394 -0.103509 0.0476234 -1.58274 -0.0633411 0.0398718 -1.55826 0.099805 0.0565514 -1.53913 0.120038 0.052976 -1.5268 0.130566 0.0489794 -1.53013 0.116655 0.0389088 -1.55793 0.0943236 0.0445842 -1.56636 0.0949622 0.0451174 -1.53351 0.101285 0.0559766 -1.55364 0.110088 0.0313416 -1.58243 0.0733693 -0.1063 -1.55795 -0.0155098 -0.132246 -1.53878 -0.0111891 -0.139617 -1.52659 -0.0195826 -0.125622 -1.52993 -0.016118 -0.101121 -1.55761 -0.013624 -0.104726 -1.56614 -0.00890861 -0.110403 -1.53333 -0.011833 -0.123514 -1.55329 -0.00673668 -0.0786176 -1.58247 -0.00973964 0.0653833 -1.53384 0.0898649 0.0998696 -1.4899 0.129528 0.0767206 -1.53044 0.100753 0.109355 -1.48734 0.141003 0.110621 -1.46067 0.157939 0.0941844 -1.50201 0.134815 0.127186 -1.443 0.167457 0.0997729 -1.47868 0.151526 0.0867792 -1.52709 0.111062 -0.110225 -1.53366 0.0114001 -0.162049 -1.48983 0.0214664 -0.125534 -1.53029 0.0157746 -0.176771 -1.48727 0.0239346 -0.192115 -1.46062 0.0166357 -0.163988 -1.50197 0.0139145 -0.208609 -1.44295 0.0262235 -0.181329 -1.47867 0.0105396 -0.13961 -1.52697 0.0193171 0.0453456 -1.5341 -0.1016 0.0624403 -1.49015 -0.151313 0.0490941 -1.53069 -0.116865 0.0676293 -1.48759 -0.165266 0.0816606 -1.46091 -0.17483 0.0698627 -1.50224 -0.149037 0.0816204 -1.44325 -0.193932 0.0815335 -1.4789 -0.162239 0.0529822 -1.52734 -0.130733 0.0868375 -1.52706 -0.111266 0.0939142 -1.50201 -0.135121 0.109129 -1.48718 -0.141242 0.0767978 -1.53038 -0.100864 0.0996825 -1.4897 -0.129719 0.110379 -1.46073 -0.158114 0.127187 -1.44305 -0.167576 0.0992052 -1.47884 -0.151923 0.0654607 -1.53375 -0.0898925 0.052976 -1.5268 0.130566 0.070096 -1.50179 0.148683 0.0677717 -1.48701 0.164893 0.0489794 -1.53013 0.116655 0.0625173 -1.48953 0.150932 0.0817732 -1.46056 0.174454 0.0815578 -1.44288 0.193707 0.0820468 -1.47868 0.161924 0.0451174 -1.53351 0.101285 -0.139617 -1.52659 -0.0195826 -0.163835 -1.50163 -0.0137879 -0.176811 -1.48682 -0.0239329 -0.125622 -1.52993 -0.016118 -0.162084 -1.48934 -0.0215271 -0.192094 -1.46037 -0.0166272 -0.208656 -1.44267 -0.0264143 -0.181361 -1.4785 -0.0101581 -0.110403 -1.53333 -0.011833 0.0941844 -1.50201 0.134815 0.0826098 -1.51913 0.127103 0.075407 -1.53948 0.108661 0.0997729 -1.47868 0.151526 0.0654993 -1.5551 0.101369 0.0867792 -1.52709 0.111062 -0.163988 -1.50197 0.0139145 -0.151812 -1.51904 0.00789988 -0.13219 -1.53942 0.0108468 -0.181329 -1.47867 0.0105396 -0.121181 -1.5549 0.00607072 -0.13961 -1.52697 0.0193171 0.0698627 -1.50224 -0.149037 0.0689983 -1.51934 -0.135198 0.0566187 -1.5397 -0.119685 0.0815335 -1.4789 -0.162239 0.0553439 -1.55532 -0.107557 0.0529822 -1.52734 -0.130733 0.0868375 -1.52706 -0.111266 0.075971 -1.53938 -0.109083 0.0939142 -1.50201 -0.135121 0.0832646 -1.51956 -0.127877 0.0992052 -1.47884 -0.151923 0.0677427 -1.55394 -0.103509 0.052976 -1.5268 0.130566 0.0565514 -1.53913 0.120038 0.070096 -1.50179 0.148683 0.0693104 -1.51932 0.135954 0.0820468 -1.47868 0.161924 0.0559766 -1.55364 0.110088 -0.139617 -1.52659 -0.0195826 -0.132246 -1.53878 -0.0111891 -0.163835 -1.50163 -0.0137879 -0.152637 -1.51906 -0.00805604 -0.181361 -1.4785 -0.0101581 -0.123514 -1.55329 -0.00673668 -0.0185081 -0.0326645 0.00514799 -0.00715278 -0.0557707 -0.000329217 -0.0382644 -0.045594 0.00497118 -0.0264901 -0.0715585 -0.000349707 0.00514035 -0.081038 -0.00603937 -0.0602009 -0.0608516 0.00499895 -0.0185081 -0.0326645 0.00514799 -0.0382644 -0.045594 0.00497118 -0.0491301 -0.0215196 0.0101995 -0.0714562 -0.0339626 0.0101108 -0.0602009 -0.0608516 0.00499895 -0.081991 -0.00921394 0.0151048 0.0245904 -0.0576509 0.0526467 0.0131308 -0.0426845 0.0326103 0.02643 -0.0326104 0.0658824 0.0146466 -0.0202906 0.0455015 0.00272733 -0.0301246 0.0147316 0.0281026 -0.00924766 0.0785317 0.00259693 -0.0301914 -0.0148557 0.0130083 -0.0426503 -0.0326678 0.0145278 -0.0202158 -0.0455924 0.0262956 -0.0325026 -0.0659966 0.0244621 -0.0575079 -0.0526695 0.0279667 -0.00912492 -0.0786736 0.0316188 -0.0592847 -0.0451076 0.0216662 -0.0430427 -0.0272041 0.0432352 -0.0333461 -0.0545531 0.0330627 -0.0198216 -0.0360912 0.0128876 -0.0294094 -0.0109871 0.0543789 -0.00912371 -0.0635253 0.0128786 -0.0293675 0.0106944 0.0216386 -0.0430594 0.0268813 0.0330453 -0.0197489 0.0357646 0.0432346 -0.0333508 0.0542485 0.0315533 -0.0593154 0.0447854 0.0544153 -0.00902961 0.0632228 -0.0642053 -0.060194 -0.00574354 -0.0393805 -0.0463781 -0.0051702 -0.0734924 -0.0335101 -0.0105882 -0.0485384 -0.0225251 -0.0101704 -0.0171449 -0.0347134 -0.00481584 -0.0821122 -0.0091415 -0.0153623 0.00252053 -1.59943 0.00180452 0.00355925 -1.58998 0.00342446 0.00560726 -1.59509 0.00662466 0.00752648 -1.58449 0.0103362 0.00469368 -1.57775 0.00561555 0.0100394 -1.58973 0.0130492 0.000555489 -1.59959 -0.00304016 0.00147559 -1.59013 -0.00491304 0.0031951 -1.59517 -0.0083019 0.00545659 -1.58463 -0.0119036 0.00281809 -1.57792 -0.00712172 0.00646638 -1.58981 -0.0154462 0.0102461 -1.59011 -0.0132361 0.00758241 -1.58486 -0.0104608 0.00573673 -1.59543 -0.00681044 0.00358207 -1.5903 -0.00357303 0.00463307 -1.57817 -0.00578001 0.00263271 -1.59969 -0.00204775 0.00647496 -1.59001 0.015361 0.00541966 -1.5847 0.0116885 0.00315036 -1.59531 0.00824897 0.00143016 -1.59014 0.00480949 0.00286282 -1.57789 0.00687112 0.00050444 -1.59959 0.0031848 -0.00256991 -1.59955 0.000937876 -0.00428324 -1.59008 0.000853334 -0.00837823 -1.59522 0.0012525 -0.0123861 -1.58457 0.000765648 -0.0066305 -1.5778 0.00054065 -0.0164425 -1.59001 0.00200282 -0.0165881 -1.58955 -0.00256137 -0.0128611 -1.58436 -0.00158761 -0.00873267 -1.59496 -0.00172921 -0.00491944 -1.58986 -0.00147498 -0.00746548 -1.57767 -0.00137752 -0.00291165 -1.59934 -0.00132326 0.0164044 -1.5605 -0.0281916 0.00937241 -1.57008 -0.015205 0.0128551 -1.57704 -0.0196196 0.00758241 -1.58486 -0.0104608 0.00463307 -1.57817 -0.00578001 0.0102461 -1.59011 -0.0132361 0.0162072 -1.56023 0.0282473 0.00862126 -1.56985 0.0156865 0.0106854 -1.57685 0.0208657 0.00541966 -1.5847 0.0116885 0.00286282 -1.57789 0.00687112 0.00647496 -1.59001 0.015361 0.0100394 -1.58973 0.0130492 0.00752648 -1.58449 0.0103362 0.0126585 -1.57667 0.0195661 0.00937398 -1.56963 0.0151002 0.00469368 -1.57775 0.00561555 0.0161952 -1.56015 0.0281078 0.00646638 -1.58981 -0.0154462 0.00545659 -1.58463 -0.0119036 0.0108268 -1.57694 -0.0208753 0.00869207 -1.56996 -0.0158751 0.00281809 -1.57792 -0.00712172 0.0165812 -1.56057 -0.0280887 -0.0164425 -1.59001 0.00200282 -0.0123861 -1.58457 0.000765648 -0.0235828 -1.57667 0.00120408 -0.0176929 -1.56949 9.36285e-05 -0.0066305 -1.5778 0.00054065 -0.0328924 -1.55977 0.000294735 -0.0325337 -1.56049 6.57231e-05 -0.0178725 -1.56984 -0.00064433 -0.0233625 -1.57663 -0.00146047 -0.0128611 -1.58436 -0.00158761 -0.00746548 -1.57767 -0.00137752 -0.0165881 -1.58955 -0.00256137 0.00186068 -1.60576 -0.00720484 0.00167406 -1.60349 -0.00578162 0.00372085 -1.59922 -0.0110649 0.0031951 -1.59517 -0.0083019 0.000555489 -1.59959 -0.00304016 0.00646638 -1.58981 -0.0154462 0.00527423 -1.60566 0.0049863 0.0042743 -1.60334 0.0041161 0.00769031 -1.59912 0.0084596 0.00560726 -1.59509 0.00662466 0.00252053 -1.59943 0.00180452 0.0100394 -1.58973 0.0130492 0.00647496 -1.59001 0.015361 0.00315036 -1.59531 0.00824897 0.00374703 -1.59943 0.0110536 0.00165859 -1.60354 0.00588488 0.00050444 -1.59959 0.0031848 0.00198536 -1.60594 0.00723905 0.0102461 -1.59011 -0.0132361 0.00573673 -1.59543 -0.00681044 0.00784273 -1.59949 -0.008725 0.00441913 -1.60363 -0.00435764 0.00263271 -1.59969 -0.00204775 0.00538046 -1.60596 -0.00519167 -0.00703952 -1.60594 0.00182487 -0.0056191 -1.6035 0.00137494 -0.0112797 -1.59943 0.00227487 -0.00837823 -1.59522 0.0012525 -0.00256991 -1.59955 0.000937876 -0.0164425 -1.59001 0.00200282 -0.0165881 -1.58955 -0.00256137 -0.00873267 -1.59496 -0.00172921 -0.011458 -1.5991 -0.0026738 -0.00579582 -1.60331 -0.00174097 -0.00291165 -1.59934 -0.00132326 -0.00719436 -1.6057 -0.00222847 0.154933 -1.33297 0.213205 0.154992 -1.30336 0.225267 0.14243 -1.35784 0.205816 0.143201 -1.33054 0.218131 0.155144 -1.27389 0.236959 0.129293 -1.38307 0.198383 0.107373 -1.33324 -0.240812 0.117799 -1.30362 -0.2469 0.107227 -1.35809 -0.226305 0.117515 -1.33078 -0.233132 0.127861 -1.27415 -0.252882 0.107362 -1.3833 -0.211215 -0.262058 -1.33295 0.0274483 -0.27253 -1.30332 0.021467 -0.249425 -1.35778 0.0202994 -0.260479 -1.33045 0.0147965 -0.282732 -1.27382 0.0157456 -0.236473 -1.38297 0.012611 0.0316188 -0.0592847 -0.0451076 0.00705383 -0.0701862 -0.0148009 0.0216662 -0.0430427 -0.0272041 -0.00125368 -0.0535014 0.000445254 -0.0161805 -0.0794295 0.0123119 0.0128876 -0.0294094 -0.0109871 0.0128786 -0.0293675 0.0106944 -0.00129595 -0.0535883 -0.000856524 0.0216386 -0.0430594 0.0268813 0.00698361 -0.0702375 0.0144023 -0.0163417 -0.0794888 -0.0130392 0.0315533 -0.0593154 0.0447854 -0.0642053 -0.060194 -0.00574354 -0.0266807 -0.0759352 0.000790057 -0.0393805 -0.0463781 -0.0051702 -0.00480722 -0.0609522 0.00136917 0.00847588 -0.0903206 0.00787974 -0.0171449 -0.0347134 -0.00481584 0.166024 -1.26585 0.235325 0.140407 -1.2308 0.201127 0.174908 -1.19349 0.25578 0.165975 -1.23447 0.247002 0.154992 -1.30336 0.225267 0.13213 -1.30151 0.183725 0.155144 -1.27389 0.236959 0.10859 -1.26677 0.152064 0.154933 -1.33297 0.213205 -0.286751 -1.26586 0.0259889 -0.244337 -1.23083 0.0208609 -0.308908 -1.19352 0.0234414 -0.296844 -1.23445 0.0201016 -0.27253 -1.30332 0.021467 -0.225129 -1.30152 0.0224048 -0.282732 -1.27382 0.0157456 -0.185955 -1.2668 0.0178114 -0.262058 -1.33295 0.0274483 0.121 -1.26613 -0.261463 0.104217 -1.23108 -0.222171 0.134302 -1.19377 -0.279363 0.131155 -1.23474 -0.267265 0.117799 -1.30362 -0.2469 0.0932636 -1.30179 -0.206319 0.127861 -1.27415 -0.252882 0.0776396 -1.26706 -0.170101 0.107373 -1.33324 -0.240812 0.0245904 -0.0576509 0.0526467 0.00995988 -0.0694523 0.0146305 0.0131308 -0.0426845 0.0326103 0.000116319 -0.0539516 -0.00245921 -0.00262347 -0.0794095 -0.0206728 0.00272733 -0.0301246 0.0147316 0.00259693 -0.0301914 -0.0148557 -4.17469e-05 -0.0539508 0.00243093 0.0130083 -0.0426503 -0.0326678 0.00982656 -0.069356 -0.0146385 -0.00272583 -0.079311 0.0207459 0.0244621 -0.0575079 -0.0526695 0.00763653 -1.60786 -0.000192642 0.00356769 -1.61081 -0.00639064 0.0016661 -1.60924 -0.00310475 0.00132654 -1.61113 -0.00253828 0.0048865 -1.60968 -0.000828501 0.0114241 -1.60967 -0.00259218 0.000811121 -1.61215 -0.00172545 0.00617019 -1.61491 -0.0109503 0.0142548 -1.60385 0.00228883 0.00798654 -1.60805 -0.000342919 0.0117868 -1.60983 0.00207938 0.0146173 -1.60405 -0.00285343 0.00521621 -1.60989 0.000323468 0.00165609 -1.61134 0.00206279 0.00390312 -1.61099 0.00591008 0.00110464 -1.61237 0.00129337 0.00647279 -1.61508 0.0105287 0.0020157 -1.60945 0.00259648 -0.00386667 -1.60788 -0.00675551 -0.00371199 -1.60964 -0.0112416 -0.00930422 -1.60391 -0.0112182 -0.001942 -1.6097 -0.0046942 0.00132654 -1.61113 -0.00253828 0.00356769 -1.61081 -0.00639064 0.000811121 -1.61215 -0.00172545 0.00617019 -1.61491 -0.0109503 0.0016661 -1.60924 -0.00310475 -0.00361086 -1.60808 -0.00667196 -0.00694544 -1.611 -6.5982e-05 -0.00314076 -1.60947 -3.98026e-05 -0.00251718 -1.61136 -8.58349e-06 -0.00282069 -1.60991 -0.00392499 -0.00758658 -1.60983 -0.00880933 -0.00158967 -1.61237 5.93427e-05 -0.0122179 -1.61509 -7.23896e-05 -0.00481615 -1.60404 -0.0136602 -0.00355178 -1.60811 0.00657092 -0.00752261 -1.60983 0.00867686 -0.00472237 -1.60413 0.0135117 -0.00276241 -1.60992 0.00388622 -0.00251718 -1.61136 -8.58349e-06 -0.00694544 -1.611 -6.5982e-05 -0.00158967 -1.61237 5.93427e-05 -0.0122179 -1.61509 -7.23896e-05 -0.00314076 -1.60947 -3.98026e-05 -0.00351721 -1.60811 0.00626895 0.00390312 -1.61099 0.00591008 0.0020157 -1.60945 0.00259648 0.00165609 -1.61134 0.00206279 -0.00162157 -1.60993 0.0042401 -0.00336691 -1.60985 0.0107722 0.00110464 -1.61237 0.00129337 0.00647279 -1.61508 0.0105287 -0.00895691 -1.60418 0.0107442 -0.00703952 -1.60594 0.00182487 -0.00570004 -1.60803 0.00078005 -0.00333102 -1.60965 0.000736473 -0.000727514 -1.60932 -0.00154609 -0.00178255 -1.60798 -0.00327575 -0.000259439 -1.6109 -0.000704599 -0.000446838 -1.61078 0.00053713 -0.000916058 -1.60925 0.00139002 -0.00353988 -1.6095 -0.00097702 -0.005915 -1.60795 -0.00101638 -0.00192138 -1.60794 0.00311079 -0.00719436 -1.6057 -0.00222847 0.00186068 -1.60576 -0.00720484 0.00230802 -1.60812 -0.00554297 0.0011822 -1.60966 -0.00339859 0.00192932 -1.60947 1.36607e-05 0.00390545 -1.60817 2.03007e-05 0.000970079 -1.611 5.97197e-05 0.00527423 -1.60566 0.0049863 0.00366445 -1.60794 0.00449629 0.00240088 -1.60948 0.00245938 -0.000916058 -1.60925 0.00139002 -0.00192138 -1.60794 0.00311079 -0.000446838 -1.61078 0.00053713 0.000970079 -1.611 5.97197e-05 0.00192932 -1.60947 1.36607e-05 0.00120455 -1.60973 0.00348379 0.00233738 -1.60818 0.00556228 0.00390545 -1.60817 2.03007e-05 0.00198536 -1.60594 0.00723905 -0.000259439 -1.6109 -0.000704599 -0.000727514 -1.60932 -0.00154609 0.00257172 -1.60967 -0.00263041 0.00379108 -1.6081 -0.00462322 -0.00178255 -1.60798 -0.00327575 0.00538046 -1.60596 -0.00519167 -0.0405393 -1.60218 -0.0143886 -0.0359433 -1.60553 -0.0120278 -0.0275415 -1.60425 -0.0146665 -0.0439005 -1.60296 -0.0119146 -0.0555114 -1.601 -0.0102879 -0.0525956 -1.60466 -0.0100637 -0.0626865 -1.59899 -0.00642759 -0.0512065 -1.60726 -0.00613012 -0.0533243 -1.60071 -0.0125919 0.00799829 -1.60198 0.0423779 0.00773475 -1.6054 0.0372164 0.0012482 -1.60409 0.0312064 0.0119103 -1.60277 0.0441202 0.0191979 -1.60091 0.0534559 0.0177165 -1.60452 0.0506719 0.0263812 -1.59895 0.0580976 0.0204539 -1.60723 0.0474957 0.0159588 -1.60059 0.0525614 0.032913 -1.60206 -0.0282024 0.0285985 -1.60552 -0.0253816 0.0266326 -1.60418 -0.0167647 0.0324522 -1.60285 -0.0324483 0.0368961 -1.60096 -0.0434367 0.0352361 -1.60462 -0.0407408 0.0373239 -1.59899 -0.0519921 0.0311369 -1.60736 -0.0415097 0.037754 -1.60064 -0.0401802 -0.0402469 -1.60223 0.0142665 -0.052278 -1.60461 0.0098856 -0.0530183 -1.60074 0.012494 -0.0550321 -1.60104 0.0102454 -0.0434576 -1.60301 0.0118719 -0.0358218 -1.60539 0.0118117 -0.0617154 -1.59903 0.00651918 -0.050975 -1.60702 0.00593994 -0.0273759 -1.60419 0.0144706 0.00775261 -1.60228 -0.0421216 0.0176112 -1.60474 -0.0503223 0.0156933 -1.60093 -0.0522751 0.0186462 -1.60135 -0.0529908 0.0114225 -1.60308 -0.0437254 0.00776863 -1.60544 -0.0371658 0.0251432 -1.59957 -0.0571023 0.0203552 -1.60722 -0.047335 0.00121861 -1.60418 -0.0310893 0.0325986 -1.60231 0.0276401 0.0348092 -1.60466 0.0402516 0.0374215 -1.60084 0.0395631 0.03655 -1.60116 0.0424617 0.0321581 -1.60309 0.0316256 0.0282925 -1.60549 0.0250539 0.0367778 -1.5992 0.0501514 0.0307835 -1.60714 0.0411088 0.02638 -1.60427 0.016423 0.0409765 -1.51056 -0.0622365 0.0252549 -1.53868 -0.0396572 0.057099 -1.51571 -0.082982 0.0369136 -1.54445 -0.0515766 0.0164044 -1.5605 -0.0281916 0.0654607 -1.53375 -0.0898925 0.0335475 -1.51046 0.0662726 0.0217843 -1.53819 0.0419876 0.0433048 -1.5156 0.0906316 0.026332 -1.54399 0.0581182 0.0162072 -1.56023 0.0282473 0.0451174 -1.53351 0.101285 -0.0743218 -1.51035 -0.00423839 -0.0470184 -1.53874 -0.00195547 -0.100462 -1.51533 -0.00807451 -0.0634098 -1.54446 -0.00603682 -0.0325337 -1.56049 6.57231e-05 -0.110403 -1.53333 -0.011833 -0.00746548 -1.57767 -0.00137752 0.00206949 -1.57508 -0.00145479 -0.00491944 -1.58986 -0.00147498 0.00202365 -1.58801 -0.0012711 0.0137582 -1.57175 -0.000808025 -0.00291165 -1.59934 -0.00132326 0.0138445 -1.57163 0.000469264 0.00262342 -1.57516 0.000799072 0.00231527 -1.58814 0.00086667 -0.00428324 -1.59008 0.000853334 -0.0066305 -1.5778 0.00054065 -0.00256991 -1.59955 0.000937876 -0.00630926 -1.5718 -0.0122777 -9.82058e-05 -1.57515 -0.00261207 -0.000111938 -1.58806 -0.00251148 0.00355925 -1.58998 0.00342446 0.00469368 -1.57775 0.00561555 0.00252053 -1.59943 0.00180452 -0.00713821 -1.57211 0.0116443 -0.00192351 -1.57537 0.0012274 -0.0017801 -1.5883 0.00135598 0.00147559 -1.59013 -0.00491304 0.00281809 -1.57792 -0.00712172 0.000555489 -1.59959 -0.00304016 0.00463307 -1.57817 -0.00578001 3.08462e-05 -1.57553 0.00235558 0.00358207 -1.5903 -0.00357303 0.000123088 -1.58834 0.00227946 -0.00576661 -1.5721 0.011861 0.00263271 -1.59969 -0.00204775 0.00286282 -1.57789 0.00687112 -0.00191565 -1.57501 -0.0014111 0.00143016 -1.59014 0.00480949 -0.00191939 -1.58805 -0.00125151 -0.0072962 -1.57127 -0.0118882 0.00050444 -1.59959 0.0031848 0.0453456 -1.5341 -0.1016 0.0265121 -1.54464 -0.0574669 0.0435952 -1.51611 -0.0905246 0.022123 -1.53871 -0.0411296 0.0165812 -1.56057 -0.0280887 0.0337033 -1.51083 -0.065069 0.0653833 -1.53384 0.0898649 0.0366321 -1.54431 0.0514903 0.056655 -1.51585 0.0827845 0.0246502 -1.53837 0.0394356 0.0161952 -1.56015 0.0281078 0.0395592 -1.51058 0.0614609 -0.110225 -1.53366 0.0114001 -0.063248 -1.54413 0.00616606 -0.099623 -1.51589 0.00746981 -0.0470771 -1.5382 0.00199396 -0.0328924 -1.55977 0.000294735 -0.0728275 -1.51083 0.0034129 0.0374215 -1.60084 0.0395631 0.0370218 -1.60069 0.0500523 0.03655 -1.60116 0.0424617 0.0372182 -1.60064 0.0518092 0.0324065 -1.60086 0.0558703 0.0367778 -1.5992 0.0501514 -0.0530183 -1.60074 0.012494 -0.0618907 -1.60065 0.00689025 -0.0550321 -1.60104 0.0102454 -0.0634911 -1.60058 0.00613592 -0.0645447 -1.60088 -3.05858e-05 -0.0617154 -1.59903 0.00651918 0.0263812 -1.59895 0.0580976 0.0266669 -1.60053 0.0582476 0.0191979 -1.60091 0.0534559 0.025139 -1.60063 0.0571285 0.0324065 -1.60086 0.0558703 0.0159588 -1.60059 0.0525614 0.0156933 -1.60093 -0.0522751 0.0250132 -1.60077 -0.0571319 0.0186462 -1.60135 -0.0529908 0.0264144 -1.60071 -0.0581871 0.0323506 -1.60093 -0.0560646 0.0251432 -1.59957 -0.0571023 0.0373239 -1.59899 -0.0519921 0.0372772 -1.60059 -0.052293 0.0368961 -1.60096 -0.0434367 0.0370875 -1.60069 -0.0504035 0.0323506 -1.60093 -0.0560646 0.037754 -1.60064 -0.0401802 -0.0626865 -1.59899 -0.00642759 -0.0636191 -1.60058 -0.00624767 -0.0555114 -1.601 -0.0102879 -0.0619788 -1.60068 -0.00695208 -0.0645447 -1.60088 -3.05858e-05 -0.0533243 -1.60071 -0.0125919 0.0314405 -1.57938 -0.036208 0.0221765 -1.59258 -0.0245795 0.0292163 -1.59178 -0.0344217 0.0178036 -1.60036 -0.0227205 0.0135798 -1.60148 -0.0152558 0.0200418 -1.60133 -0.0292322 0.0157932 -1.57919 0.0454242 0.0103347 -1.5925 0.0315597 0.0152954 -1.59163 0.042609 0.010777 -1.60023 0.0268843 0.00647222 -1.60158 0.0194296 0.0152719 -1.60109 0.031969 -0.0466692 -1.57896 -0.00920815 -0.0322935 -1.59218 -0.00694753 -0.0445267 -1.59137 -0.00820258 -0.0287456 -1.59995 -0.00423468 -0.020074 -1.6012 -0.00428009 -0.0356066 -1.60093 -0.00292707 0.0156992 -1.60111 -0.0318472 0.0110814 -1.60007 -0.0267803 0.0156173 -1.59151 -0.042346 0.0104566 -1.59232 -0.0313204 0.00660735 -1.60125 -0.0194904 0.0158572 -1.57936 -0.0450016 0.0198794 -1.60089 0.0293317 0.0177625 -1.59991 0.0227484 0.0289926 -1.5913 0.0344646 0.0220048 -1.59216 0.0244797 0.0135768 -1.60116 0.0151794 0.0311876 -1.57909 0.0361096 -0.0353028 -1.60118 0.00254116 -0.0283708 -1.6001 0.00388855 -0.0442812 -1.5915 0.00767671 -0.0322101 -1.59233 0.00659957 -0.0195673 -1.60149 0.00386208 -0.0470579 -1.57909 0.00872049 0.0164044 -1.5605 -0.0281916 0.0128551 -1.57704 -0.0196196 0.0249407 -1.56833 -0.0334314 0.0187769 -1.58371 -0.0226832 0.0102461 -1.59011 -0.0132361 0.0314405 -1.57938 -0.036208 0.0162072 -1.56023 0.0282473 0.0106854 -1.57685 0.0208657 0.0166194 -1.56805 0.0383608 0.0103839 -1.58354 0.0275493 0.00647496 -1.59001 0.015361 0.0157932 -1.57919 0.0454242 0.0311876 -1.57909 0.0361096 0.0185415 -1.58339 0.0225826 0.0246494 -1.56806 0.0333889 0.0126585 -1.57667 0.0195661 0.0100394 -1.58973 0.0130492 0.0161952 -1.56015 0.0281078 0.0158572 -1.57936 -0.0450016 0.0104958 -1.58358 -0.0274149 0.0168633 -1.56838 -0.0379953 0.0108268 -1.57694 -0.0208753 0.00646638 -1.58981 -0.0154462 0.0165812 -1.56057 -0.0280887 -0.0325337 -1.56049 6.57231e-05 -0.0233625 -1.57663 -0.00146047 -0.0412589 -1.56797 -0.00454078 -0.0288769 -1.58326 -0.00496468 -0.0165881 -1.58955 -0.00256137 -0.0466692 -1.57896 -0.00920815 -0.0470579 -1.57909 0.00872049 -0.0289666 -1.58342 0.0046734 -0.0416156 -1.56792 0.00470344 -0.0235828 -1.57667 0.00120408 -0.0164425 -1.59001 0.00200282 -0.0328924 -1.55977 0.000294735 0.0306998 -1.58263 -0.0715319 0.023255 -1.57799 -0.0637075 0.0389308 -1.55843 -0.0939595 0.026298 -1.56076 -0.0679035 0.0158572 -1.57936 -0.0450016 0.0453456 -1.5341 -0.1016 0.0464315 -1.58238 0.0621862 0.0435946 -1.57781 0.0518699 0.0619302 -1.55819 0.0805077 0.0457697 -1.56051 0.0565479 0.0311876 -1.57909 0.0361096 0.0653833 -1.53384 0.0898649 -0.0781692 -1.58207 0.00938074 -0.0666227 -1.57795 0.0113712 -0.101008 -1.55818 0.0131242 -0.0719088 -1.56043 0.011068 -0.0470579 -1.57909 0.00872049 -0.110225 -1.53366 0.0114001 -0.00683005 -1.59696 0.0210589 -0.0103974 -1.59951 0.0280314 -0.00984719 -1.58695 0.0292635 -0.00604193 -1.59705 0.0138273 -0.00403193 -1.6048 0.00924868 -0.00852527 -1.6061 0.01781 -0.00274805 -1.60457 0.00525381 -0.01365 -1.6106 0.0203083 -0.00472237 -1.60413 0.0135117 -0.01478 -1.59674 -0.0168125 -0.0190254 -1.5993 -0.023382 -0.0203644 -1.5867 -0.0235449 -0.00887873 -1.59682 -0.0124898 -0.00594134 -1.60457 -0.00846072 -0.0111183 -1.60591 -0.0166442 -0.00308517 -1.60434 -0.0053232 -0.0106991 -1.61039 -0.0222995 -0.00930422 -1.60391 -0.0112182 -0.00698702 -1.59677 -0.0212085 -0.00860642 -1.60603 -0.0179737 -0.00481615 -1.60404 -0.0136602 -0.0040883 -1.60468 -0.00934129 -0.00616671 -1.59688 -0.0139312 -0.0105756 -1.59943 -0.0281774 -0.0027324 -1.60444 -0.00531286 -0.0136735 -1.61055 -0.0203184 -0.0101254 -1.58665 -0.0294713 -0.0144532 -1.59706 0.0163464 -0.0107866 -1.60615 0.0162058 -0.00895691 -1.60418 0.0107442 -0.00561588 -1.60485 0.00802769 -0.00855807 -1.59716 0.0120639 -0.0187119 -1.5996 0.0229201 -0.00273759 -1.60461 0.00493274 -0.010377 -1.61062 0.0219135 -0.0200593 -1.58704 0.0230683 0.0217804 -1.59671 0.00425849 0.0198105 -1.60591 0.0011245 0.0142548 -1.60385 0.00228883 0.0102005 -1.60447 0.00087688 0.015148 -1.59684 0.00138675 0.0295041 -1.59932 0.00463716 0.00620117 -1.60419 0.000262648 0.0242626 -1.61048 -0.00213492 0.0303811 -1.58673 0.00575763 0.0222177 -1.59685 -0.0048302 0.0300184 -1.5994 -0.00521794 0.0309494 -1.58669 -0.00631338 0.0154881 -1.59696 -0.00182578 0.0105237 -1.60466 -0.00135251 0.0201776 -1.60606 -0.00166636 0.00645627 -1.60433 -0.000579946 0.0245948 -1.61057 0.00166062 0.0146173 -1.60405 -0.00285343 0.0451174 -1.53351 0.101285 0.026434 -1.56013 0.0684776 0.0389088 -1.55793 0.0943236 0.0236008 -1.57791 0.0646141 0.0157932 -1.57919 0.0454242 0.0313416 -1.58243 0.0733693 0.0654607 -1.53375 -0.0898925 0.0458885 -1.56057 -0.0566909 0.0624885 -1.55816 -0.080818 0.0440683 -1.57809 -0.0524091 0.0314405 -1.57938 -0.036208 0.0476234 -1.58274 -0.0633411 -0.110403 -1.53333 -0.011833 -0.0722856 -1.56032 -0.0114627 -0.101121 -1.55761 -0.013624 -0.0675776 -1.57772 -0.0121093 -0.0466692 -1.57896 -0.00920815 -0.0786176 -1.58247 -0.00973964 -0.000259439 -1.6109 -0.000704599 6.81614e-05 -1.61197 -0.000179202 -0.00333102 -1.60965 0.000736473 -0.00156765 -1.61071 0.000476964 0.0003274 -1.61235 0.000327595 -0.00703952 -1.60594 0.00182487 -0.00719436 -1.6057 -0.00222847 -0.00176382 -1.61053 -0.000817734 -0.00353988 -1.6095 -0.00097702 -0.000137552 -1.61182 -2.82916e-05 0.000109925 -1.61219 -0.000548117 -0.000446838 -1.61078 0.00053713 0.000970079 -1.611 5.97197e-05 0.000321559 -1.61203 8.43192e-05 0.0011822 -1.60966 -0.00339859 0.000390973 -1.61067 -0.00171692 -0.000251865 -1.61238 0.000155168 0.00186068 -1.60576 -0.00720484 -0.000446838 -1.61078 0.00053713 -0.000137552 -1.61182 -2.82916e-05 0.00240088 -1.60948 0.00245938 0.00133854 -1.61049 0.00100073 0.000109925 -1.61219 -0.000548117 0.00527423 -1.60566 0.0049863 0.00198536 -1.60594 0.00723905 0.000481364 -1.61072 0.00187173 0.00120455 -1.60973 0.00348379 0.000321559 -1.61203 8.43192e-05 -0.000251865 -1.61238 0.000155168 0.000970079 -1.611 5.97197e-05 0.00538046 -1.60596 -0.00519167 0.00146505 -1.61068 -0.00121708 0.00257172 -1.60967 -0.00263041 6.81614e-05 -1.61197 -0.000179202 0.0003274 -1.61235 0.000327595 -0.000259439 -1.6109 -0.000704599 -0.262058 -1.33295 0.0274483 -0.179566 -1.3665 0.0203439 -0.225129 -1.30152 0.0224048 -0.145352 -1.33461 0.0159788 -0.185955 -1.2668 0.0178114 -0.107843 -1.3974 0.0128747 0.154933 -1.33297 0.213205 0.107571 -1.36651 0.145276 0.13213 -1.30151 0.183725 0.0867073 -1.33459 0.117773 0.10859 -1.26677 0.152064 0.0652995 -1.39738 0.086772 0.107373 -1.33324 -0.240812 0.0722364 -1.36677 -0.16584 0.0932636 -1.30179 -0.206319 0.0588717 -1.33487 -0.134017 0.0776396 -1.26706 -0.170101 0.0427038 -1.39764 -0.0999927 0.0290757 -1.60852 0.0572106 0.0268558 -1.60446 0.0580831 0.0347813 -1.60969 0.0602593 0.0332725 -1.61254 0.0575828 0.0281682 -1.61165 0.0551126 0.0177165 -1.60452 0.0506719 0.0330974 -1.61738 0.0572024 0.0159588 -1.60059 0.0525614 0.0204539 -1.60723 0.0474957 -0.0317436 -1.60448 0.0130311 -0.0225872 -1.6054 0.012925 -0.0119171 -1.60347 0.0209385 -0.0123405 -1.61077 0.0216129 -0.0324044 -1.61106 0.0131726 -0.0358218 -1.60539 0.0118117 -0.0125721 -1.61853 0.0218444 -0.0273759 -1.60419 0.0144706 -0.050975 -1.60702 0.00593994 0.0273469 -1.60461 0.020889 0.0226819 -1.60552 0.0130262 0.0243215 -1.60362 -0.000234136 0.0251011 -1.6109 -0.000213602 0.0277854 -1.6112 0.0213654 0.0282925 -1.60549 0.0250539 0.0254062 -1.61865 -0.000142709 0.02638 -1.60427 0.016423 0.0307835 -1.60714 0.0411088 -0.0639482 -1.6085 -0.00348188 -0.0636149 -1.60453 -0.00586054 -0.069483 -1.60963 -8.37451e-05 -0.0665004 -1.61247 -8.9632e-05 -0.0617442 -1.61163 -0.00326873 -0.0525956 -1.60466 -0.0100637 -0.0662354 -1.61727 -7.03796e-05 -0.0533243 -1.60071 -0.0125919 -0.0512065 -1.60726 -0.00613012 0.0352178 -1.60863 -0.0538081 0.0370735 -1.60456 -0.0523382 0.0349875 -1.60978 -0.0602285 0.0334156 -1.61259 -0.0575546 0.0338509 -1.61174 -0.0519424 0.0352361 -1.60462 -0.0407408 0.0331402 -1.61735 -0.0571067 0.037754 -1.60064 -0.0401802 0.0311369 -1.60736 -0.0415097 0.00463078 -1.60465 -0.0342508 0.000174179 -1.60549 -0.0262565 -0.0120962 -1.60362 -0.0210139 -0.0125079 -1.61091 -0.0216844 0.00479781 -1.61125 -0.0348163 0.00776863 -1.60544 -0.0371658 -0.0126768 -1.61867 -0.0219647 0.00121861 -1.60418 -0.0310893 0.0203552 -1.60722 -0.047335 -0.0638611 -1.60838 0.00328339 -0.052278 -1.60461 0.0098856 -0.050975 -1.60702 0.00593994 -0.0616558 -1.6115 0.00306788 -0.0665004 -1.61247 -8.9632e-05 -0.0636117 -1.60445 0.00562311 -0.0662354 -1.61727 -7.03796e-05 -0.0530183 -1.60074 0.012494 -0.069483 -1.60963 -8.37451e-05 0.0348963 -1.60846 0.0536432 0.0348092 -1.60466 0.0402516 0.0307835 -1.60714 0.0411088 0.0335984 -1.6116 0.0517727 0.0332725 -1.61254 0.0575828 0.0367849 -1.60448 0.0522271 0.0330974 -1.61738 0.0572024 0.0374215 -1.60084 0.0395631 0.0347813 -1.60969 0.0602593 0.00474958 -1.60457 0.0343128 0.00773475 -1.6054 0.0372164 0.0204539 -1.60723 0.0474957 0.00490501 -1.61116 0.0348483 -0.0123405 -1.61077 0.0216129 0.000300632 -1.6054 0.0263734 -0.0125721 -1.61853 0.0218444 0.0012482 -1.60409 0.0312064 -0.0119171 -1.60347 0.0209385 0.0291753 -1.6086 -0.0570564 0.0176112 -1.60474 -0.0503223 0.0203552 -1.60722 -0.047335 0.0282197 -1.61172 -0.0549928 0.0334156 -1.61259 -0.0575546 0.0270213 -1.60462 -0.0579794 0.0331402 -1.61735 -0.0571067 0.0156933 -1.60093 -0.0522751 0.0349875 -1.60978 -0.0602285 -0.0319654 -1.6047 -0.0131996 -0.0359433 -1.60553 -0.0120278 -0.0512065 -1.60726 -0.00613012 -0.0325447 -1.61128 -0.0133274 -0.0125079 -1.61091 -0.0216844 -0.0228768 -1.60555 -0.0131019 -0.0126768 -1.61867 -0.0219647 -0.0275415 -1.60425 -0.0146665 -0.0120962 -1.60362 -0.0210139 0.027584 -1.60472 -0.0213369 0.0285985 -1.60552 -0.0253816 0.0311369 -1.60736 -0.0415097 0.0279531 -1.6113 -0.0217313 0.0251011 -1.6109 -0.000213602 0.0229381 -1.60552 -0.0135166 0.0254062 -1.61865 -0.000142709 0.0266326 -1.60418 -0.0167647 0.0243215 -1.60362 -0.000234136 0.0100394 -1.58973 0.0130492 0.0137115 -1.5958 0.0147906 0.00769031 -1.59912 0.0084596 0.00900511 -1.60306 0.00872896 0.0135768 -1.60116 0.0151794 0.00527423 -1.60566 0.0049863 0.00646638 -1.58981 -0.0154462 0.00617581 -1.59589 -0.0194538 0.00372085 -1.59922 -0.0110649 0.00326911 -1.60313 -0.0123679 0.00660735 -1.60125 -0.0194904 0.00186068 -1.60576 -0.00720484 -0.0164425 -1.59001 0.00200282 -0.0196136 -1.5961 0.00418469 -0.0112797 -1.59943 0.00227487 -0.0119637 -1.60337 0.00303534 -0.0195673 -1.60149 0.00386208 -0.00703952 -1.60594 0.00182487 0.00198536 -1.60594 0.00723905 0.00331884 -1.60337 0.0122344 0.00374703 -1.59943 0.0110536 0.00620064 -1.59613 0.0194078 0.00647222 -1.60158 0.0194296 0.00647496 -1.59001 0.015361 0.00538046 -1.60596 -0.00519167 0.00908999 -1.60337 -0.00887746 0.00784273 -1.59949 -0.008725 0.0138604 -1.59619 -0.0150384 0.0135798 -1.60148 -0.0152558 0.0102461 -1.59011 -0.0132361 0.0368896 0.0036179 -0.0334707 0.0420579 -0.00696909 -0.0552116 0.0543789 -0.00912371 -0.0635253 0.0330627 -0.0198216 -0.0360912 0.0170898 -0.00762339 -0.00885567 0.0255838 0.00296872 -0.0269055 0.0128876 -0.0294094 -0.0109871 0.029623 -0.00320624 -0.0448727 0.0209062 0.0104246 -0.00643823 0.0369229 0.00377156 0.0330772 0.0270375 0.00402906 0.0252321 0.0209284 0.0105565 0.00601993 0.0170618 -0.00749761 0.00852589 0.0330453 -0.0197489 0.0357646 0.0436481 -0.00599359 0.0536925 0.0128786 -0.0293675 0.0106944 0.0330669 -0.0027108 0.0434901 0.0544153 -0.00902961 0.0632228 -0.00719436 -1.6057 -0.00222847 -0.0122297 -1.60305 -0.0035184 -0.011458 -1.5991 -0.0026738 -0.0199013 -1.59571 -0.0046339 -0.020074 -1.6012 -0.00428009 -0.0165881 -1.58955 -0.00256137 -0.158204 -0.0549317 -0.014967 -0.109136 -0.0579919 -0.0104157 -0.119371 -0.0284651 -0.0152615 -0.0734924 -0.0335101 -0.0105882 -0.0642053 -0.060194 -0.00574354 -0.0821122 -0.0091415 -0.0153623 0.0996825 -1.4897 -0.129719 0.057099 -1.51571 -0.082982 0.0654607 -1.53375 -0.0898925 0.0820107 -1.47785 -0.109788 0.0409765 -1.51056 -0.0622365 0.127187 -1.44305 -0.167576 0.0625173 -1.48953 0.150932 0.0433048 -1.5156 0.0906316 0.0451174 -1.53351 0.101285 0.054117 -1.47772 0.125643 0.0335475 -1.51046 0.0662726 0.0815578 -1.44288 0.193707 -0.162084 -1.48934 -0.0215271 -0.100462 -1.51533 -0.00807451 -0.110403 -1.53333 -0.011833 -0.13606 -1.47754 -0.016164 -0.0743218 -1.51035 -0.00423839 -0.208656 -1.44267 -0.0264143 0.0998696 -1.4899 0.129528 0.0818812 -1.47786 0.109443 0.127186 -1.443 0.167457 0.056655 -1.51585 0.0827845 0.0395592 -1.51058 0.0614609 0.0653833 -1.53384 0.0898649 -0.162049 -1.48983 0.0214664 -0.135596 -1.47788 0.0159981 -0.208609 -1.44295 0.0262235 -0.099623 -1.51589 0.00746981 -0.0728275 -1.51083 0.0034129 -0.110225 -1.53366 0.0114001 0.0624403 -1.49015 -0.151313 0.0540575 -1.47811 -0.125697 0.0816204 -1.44325 -0.193932 0.0435952 -1.51611 -0.0905246 0.0337033 -1.51083 -0.065069 0.0453456 -1.5341 -0.1016 -0.00178255 -1.60798 -0.00327575 -0.00983603 -1.60635 0.000317947 -0.00354693 -1.60737 -0.00627087 -0.0141223 -1.60626 -0.0021958 -0.0195673 -1.60149 0.00386208 -0.00565222 -1.60862 -0.0101378 -0.00192138 -1.60794 0.00311079 0.00542296 -1.60623 0.00844168 -0.00366508 -1.60735 0.00609392 0.00529549 -1.60609 0.0132607 0.0135768 -1.60116 0.0151794 -0.00583516 -1.6086 0.00988201 0.00390545 -1.60817 2.03007e-05 0.00485724 -1.60641 -0.00904032 0.0073338 -1.60756 7.76197e-05 0.00903757 -1.60626 -0.0112409 0.00660735 -1.60125 -0.0194904 0.0116507 -1.60877 7.59193e-05 -0.00583516 -1.6086 0.00988201 -0.0143404 -1.60613 0.00187623 -0.00366508 -1.60735 0.00609392 -0.0101823 -1.60626 -0.000578506 -0.020074 -1.6012 -0.00428009 -0.00192138 -1.60794 0.00311079 0.0992052 -1.47884 -0.151923 0.114691 -1.43356 -0.174899 0.110379 -1.46073 -0.158114 0.127789 -1.41267 -0.18241 0.129399 -1.38315 -0.197791 0.127187 -1.44305 -0.167576 0.0820468 -1.47868 0.161924 0.0941889 -1.43331 0.186636 0.0817732 -1.46056 0.174454 0.0941306 -1.41246 0.201628 0.106676 -1.38288 0.210644 0.0815578 -1.44288 0.193707 -0.181361 -1.4785 -0.0101581 -0.208896 -1.43313 -0.0119306 -0.192094 -1.46037 -0.0166272 -0.221814 -1.41225 -0.019475 -0.235958 -1.38268 -0.0130848 -0.208656 -1.44267 -0.0264143 0.0116507 -1.60877 7.59193e-05 0.00899655 -1.60637 0.0113852 0.0073338 -1.60756 7.76197e-05 0.00477721 -1.60651 0.00901205 0.00647222 -1.60158 0.0194296 0.00390545 -1.60817 2.03007e-05 -0.00565222 -1.60862 -0.0101378 0.00538743 -1.60613 -0.0133597 -0.00354693 -1.60737 -0.00627087 0.00553381 -1.60637 -0.00855013 0.0135798 -1.60148 -0.0152558 -0.00178255 -1.60798 -0.00327575 0.127186 -1.443 0.167457 0.127697 -1.41257 0.182567 0.110621 -1.46067 0.157939 0.114908 -1.4335 0.175275 0.129293 -1.38307 0.198383 0.0997729 -1.47868 0.151526 -0.208609 -1.44295 0.0262235 -0.221953 -1.41251 0.019134 -0.192115 -1.46062 0.0166357 -0.209352 -1.4334 0.0116989 -0.236473 -1.38297 0.012611 -0.181329 -1.47867 0.0105396 0.0816204 -1.44325 -0.193932 0.0944508 -1.41281 -0.201927 0.0816606 -1.46091 -0.17483 0.0945349 -1.43373 -0.187209 0.107362 -1.3833 -0.211215 0.0815335 -1.4789 -0.162239 -0.0301358 -1.53082 -0.070308 -0.0264115 -1.55989 -0.0690366 -0.0217776 -1.55429 -0.051803 -0.0240905 -1.5357 -0.0453294 -0.0334775 -1.50972 -0.0642987 -0.0374241 -1.54285 -0.0844419 -0.0202613 -1.51422 -0.0367435 -0.0324742 -1.5729 -0.0699273 -0.0459053 -1.503 -0.0970616 -0.0454072 -1.53105 0.0610106 -0.0462749 -1.56005 0.0570574 -0.0335784 -1.55471 0.0442677 -0.0267279 -1.53596 0.0432835 -0.038557 -1.50985 0.0611011 -0.0541779 -1.54303 0.0746368 -0.0213488 -1.51429 0.0358939 -0.0441798 -1.57306 0.0632169 -0.0607216 -1.50314 0.0882729 0.0758597 -1.53072 0.0087511 0.0728756 -1.55971 0.0114279 0.0555015 -1.55439 0.00687915 0.0511847 -1.53562 0.00144312 0.0724981 -1.50947 0.00273535 0.0919804 -1.54267 0.00949813 0.0421656 -1.51388 0.000397838 0.0771116 -1.57269 0.00647087 0.107062 -1.50279 0.00835579 -0.0457091 -1.53079 -0.0612774 -0.0542958 -1.5428 -0.0748186 -0.0609899 -1.50293 -0.0884975 -0.0389518 -1.50969 -0.0613229 -0.0271386 -1.53571 -0.0435818 -0.0464359 -1.55979 -0.0573722 -0.0220536 -1.51424 -0.0361846 -0.0441817 -1.57276 -0.0634573 -0.0338887 -1.55441 -0.0446691 -0.0297982 -1.53105 0.070115 -0.0372656 -1.54298 0.0843166 -0.0457589 -1.50315 0.0970054 -0.0332821 -1.50992 0.0643331 -0.0238055 -1.53599 0.0452065 -0.026079 -1.55998 0.0687694 -0.0199866 -1.51449 0.0371314 -0.0325076 -1.57288 0.0698569 -0.0213311 -1.55468 0.0515525 0.0765439 -1.53021 -0.00922466 0.0922001 -1.54252 -0.00980189 0.107289 -1.50259 -0.00887072 0.0730903 -1.50903 -0.00347669 0.051843 -1.535 -0.00209014 0.0735089 -1.55944 -0.0118108 0.0436149 -1.51303 -0.00119034 0.077161 -1.57267 -0.00667924 0.056389 -1.55392 -0.00731974 0.174908 -1.19349 0.25578 0.140407 -1.2308 0.201127 0.140349 -1.16057 0.206628 0.108513 -1.19799 0.15624 0.10859 -1.26677 0.152064 0.107223 -1.12478 0.158161 0.134302 -1.19377 -0.279363 0.104217 -1.23108 -0.222171 0.109038 -1.16085 -0.224863 0.0813169 -1.19828 -0.172114 0.0776396 -1.26706 -0.170101 0.0836458 -1.12508 -0.171959 -0.308908 -1.19352 0.0234414 -0.244337 -1.23083 0.0208609 -0.249076 -1.1606 0.0180399 -0.189536 -1.19802 0.015636 -0.185955 -1.2668 0.0178114 -0.190557 -1.12482 0.0135403 0.0553473 -1.65149 -0.00567362 0.0579088 -1.63294 -0.00443516 0.0599336 -1.65258 -0.000163289 0.0431874 -1.65464 -9.73719e-05 0.0399524 -1.65381 -0.00356551 0.0501797 -1.63389 -0.00814179 0.0251866 -1.65533 2.39237e-05 0.0597522 -1.6142 -0.00316315 0.0458331 -1.65113 -0.011166 -0.0324246 -1.65163 -0.0453275 -0.0326037 -1.63293 -0.0480971 -0.0299589 -1.65273 -0.0521479 -0.0215196 -1.65487 -0.0376441 -0.0228649 -1.65402 -0.0329955 -0.0319506 -1.63392 -0.0394996 -0.0125258 -1.65576 -0.0222652 -0.0323329 -1.61424 -0.0501844 -0.0323728 -1.65129 -0.0342607 0.000555776 -1.6502 -0.0361091 0.001396 -1.63895 -0.0301939 0.0148762 -1.64936 -0.0256306 0.0103259 -1.65422 -0.0178504 -0.000897467 -1.65484 -0.025793 -0.00839429 -1.6365 -0.0387227 0.00586358 -1.65722 -0.0102567 -0.0104775 -1.62429 -0.0356053 -0.0132611 -1.65125 -0.0453131 -0.0227087 -1.6516 0.050534 -0.0250417 -1.63302 0.0520918 -0.0298159 -1.65271 0.0517708 -0.0214393 -1.6548 0.03722 -0.0168124 -1.65396 0.0361563 -0.0179253 -1.63397 0.047223 -0.0124731 -1.65559 0.0216591 -0.0270291 -1.6143 0.0529191 -0.0131658 -1.65121 0.0449784 0.0309837 -1.65019 0.0181156 0.0254619 -1.63902 0.0159193 0.0147977 -1.64935 0.0253033 0.010353 -1.65421 0.0174954 0.0227963 -1.65479 0.0117462 0.0376833 -1.6365 0.0116933 0.00605088 -1.65721 0.00981108 0.036027 -1.62441 0.00845989 0.0457805 -1.65114 0.0107642 -0.0311855 -1.65019 0.0175121 -0.0265171 -1.639 0.01387 -0.0292395 -1.64942 -3.63427e-05 -0.0202785 -1.65423 -0.000114281 -0.0215909 -1.65479 0.0135322 -0.0289794 -1.63653 0.0265507 -0.0115761 -1.6571 -0.00027368 -0.0252678 -1.62442 0.0268461 -0.0322475 -1.65122 0.0340015 -0.0228288 -1.65169 -0.0509314 -0.0179522 -1.63399 -0.0475737 -0.0132611 -1.65125 -0.0453131 -0.0168887 -1.65402 -0.0365444 -0.0215196 -1.65487 -0.0376441 -0.0252709 -1.63292 -0.0525344 -0.0125258 -1.65576 -0.0222652 -0.0271973 -1.61416 -0.053342 -0.0299589 -1.65273 -0.0521479 0.0310811 -1.65013 -0.0185237 0.0377091 -1.63647 -0.0121187 0.0458331 -1.65113 -0.011166 0.0228205 -1.65478 -0.0121505 0.0103259 -1.65422 -0.0178504 0.0256767 -1.63891 -0.0162745 0.00586358 -1.65722 -0.0102567 0.0362691 -1.6244 -0.00881499 0.0148762 -1.64936 -0.0256306 -0.0312256 -1.65028 -0.0176582 -0.0291064 -1.63652 -0.0267128 -0.0323728 -1.65129 -0.0342607 -0.0215878 -1.65489 -0.0137471 -0.0202785 -1.65423 -0.000114281 -0.0265866 -1.6391 -0.0140892 -0.0115761 -1.6571 -0.00027368 -0.0254243 -1.62434 -0.0271678 -0.0292395 -1.64942 -3.63427e-05 0.055359 -1.65154 0.00533745 0.0500915 -1.63394 0.00787093 0.0457805 -1.65114 0.0107642 0.0399487 -1.6538 0.00332906 0.0431874 -1.65464 -9.73719e-05 0.0580122 -1.6329 0.00407427 0.0251866 -1.65533 2.39237e-05 0.0597813 -1.6142 0.00282892 0.0599336 -1.65258 -0.000163289 -0.032327 -1.65165 0.045048 -0.031849 -1.63401 0.0392045 -0.0322475 -1.65122 0.0340015 -0.0228214 -1.65396 0.0327026 -0.0214393 -1.6548 0.03722 -0.0325074 -1.63295 0.0479719 -0.0124731 -1.65559 0.0216591 -0.0322608 -1.61428 0.0501215 -0.0298159 -1.65271 0.0517708 0.000588376 -1.65014 0.0358031 -0.00820442 -1.63649 0.0383189 -0.0131658 -1.65121 0.0449784 -0.00081182 -1.6548 0.0254978 0.010353 -1.65421 0.0174954 0.00138592 -1.63894 0.0299488 0.00605088 -1.65721 0.00981108 -0.01022 -1.62436 0.035185 0.0147977 -1.64935 0.0253033 0.0409765 -1.51056 -0.0622365 0.0238294 -1.51507 -0.0371447 0.0252549 -1.53868 -0.0396572 0.0143248 -1.54088 -0.0240085 0.00860711 -1.51765 -0.0130279 0.0164044 -1.5605 -0.0281916 0.0335475 -1.51046 0.0662726 0.0203661 -1.5148 0.0390639 0.0217843 -1.53819 0.0419876 0.0137047 -1.5405 0.0244119 0.00705518 -1.51727 0.0138809 0.0162072 -1.56023 0.0282473 -0.0743218 -1.51035 -0.00423839 -0.0440776 -1.51458 -0.00201166 -0.0470184 -1.53874 -0.00195547 -0.0281986 -1.54063 -0.000297596 -0.015588 -1.51688 -0.00118146 -0.0325337 -1.56049 6.57231e-05 0.0161952 -1.56015 0.0281078 0.0141931 -1.54047 0.0237525 0.0246502 -1.53837 0.0394356 0.0236683 -1.51482 0.0369386 0.00908581 -1.51739 0.0129779 0.0395592 -1.51058 0.0614609 0.0165812 -1.56057 -0.0280887 0.0138178 -1.54078 -0.0242755 0.022123 -1.53871 -0.0411296 0.020395 -1.51499 -0.0390439 0.00688453 -1.51744 -0.0144122 0.0337033 -1.51083 -0.065069 -0.0328924 -1.55977 0.000294735 -0.0282012 -1.54041 0.000510523 -0.0470771 -1.5382 0.00199396 -0.0440448 -1.51521 0.00176048 -0.0162716 -1.51783 0.000804168 -0.0728275 -1.51083 0.0034129 0.0107494 0.0035285 0.0483432 0.0271967 -0.00713396 0.0638495 0.0281026 -0.00924766 0.0785317 0.0146466 -0.0202906 0.0455015 -0.000971514 -0.00803907 0.0181073 0.0108528 0.00283815 0.0353973 0.00272733 -0.0301246 0.0147316 0.0245693 -0.00335154 0.0479765 -0.00474553 0.0103244 0.0209554 0.165975 -1.23447 0.247002 0.165428 -1.19542 0.26018 0.155144 -1.27389 0.236959 0.174626 -1.15227 0.269346 0.174029 -1.1118 0.280975 0.174908 -1.19349 0.25578 0.131155 -1.23474 -0.267265 0.142861 -1.19568 -0.273374 0.127861 -1.27415 -0.252882 0.14622 -1.15254 -0.285906 0.156601 -1.11206 -0.291172 0.134302 -1.19377 -0.279363 0.0105879 0.00361626 -0.0484444 0.00870203 0.00393457 -0.0359725 -0.00492 0.0103722 -0.0210809 -0.00107169 -0.00801874 -0.018232 0.0145278 -0.0202158 -0.0455924 0.0250776 -0.00606707 -0.0645661 0.00259693 -0.0301914 -0.0148557 0.0215153 -0.00276147 -0.050336 0.0279667 -0.00912492 -0.0786736 -0.296844 -1.23445 0.0201016 -0.307993 -1.19537 0.0130257 -0.282732 -1.27382 0.0157456 -0.320529 -1.15225 0.0164043 -0.330311 -1.11175 0.0100614 -0.308908 -1.19352 0.0234414 0.0274381 -1.63643 0.0467898 0.0256252 -1.62873 0.0509488 0.0317624 -1.62634 0.0546188 0.0272127 -1.61882 0.0546158 0.0169412 -1.62124 0.0455162 0.0330974 -1.61738 0.0572024 0.0330974 -1.61738 0.0572024 0.0337897 -1.61879 0.0508938 0.0317624 -1.62634 0.0546188 0.0316279 -1.62876 0.0476536 0.0310258 -1.62123 0.0374816 0.0274381 -1.63643 0.0467898 -0.0662354 -1.61727 -7.03796e-05 -0.061107 -1.6187 0.00364091 -0.0635098 -1.62622 6.02514e-05 -0.057353 -1.6287 0.00337536 -0.0480628 -1.62113 0.00794742 -0.0547084 -1.63636 0.000223903 0.0277742 -1.63603 -0.0478526 0.0316454 -1.62864 -0.047735 0.0317795 -1.6261 -0.0548835 0.0339043 -1.61886 -0.0508197 0.0312525 -1.62141 -0.0374241 0.0331402 -1.61735 -0.0571067 0.0331402 -1.61735 -0.0571067 0.0272157 -1.61894 -0.0544483 0.0317795 -1.6261 -0.0548835 0.0253362 -1.62862 -0.0508539 0.0169115 -1.62168 -0.0452773 0.0277742 -1.63603 -0.0478526 -0.0126768 -1.61867 -0.0219647 -0.0308755 -1.62017 -0.0147055 -0.0116847 -1.62744 -0.0203936 -0.0293829 -1.6294 -0.0125334 -0.0479176 -1.62134 -0.00817035 -0.00951109 -1.63699 -0.0170261 -0.00961186 -1.63721 0.0165633 -0.0295683 -1.62931 0.0121605 -0.0116726 -1.62743 0.0201489 -0.030894 -1.61999 0.0145147 -0.0480628 -1.62113 0.00794742 -0.0125721 -1.61853 0.0218444 -0.0125721 -1.61853 0.0218444 0.00281632 -1.62004 0.034053 -0.0116726 -1.62743 0.0201489 0.00406094 -1.62932 0.0316077 0.0169412 -1.62124 0.0455162 -0.00961186 -1.63721 0.0165633 0.0194538 -1.63733 -0.000114383 0.0255042 -1.62937 0.0193925 0.0234967 -1.62753 -0.000105267 0.0281682 -1.6201 0.0193488 0.0310258 -1.62123 0.0374816 0.0254062 -1.61865 -0.000142709 -0.0547084 -1.63636 0.000223903 -0.0572265 -1.62888 -0.0033044 -0.0635098 -1.62622 6.02514e-05 -0.0610059 -1.61883 -0.0038234 -0.0479176 -1.62134 -0.00817035 -0.0662354 -1.61727 -7.03796e-05 0.0254062 -1.61865 -0.000142709 0.0283289 -1.62018 -0.0195146 0.0234967 -1.62753 -0.000105267 0.0256647 -1.6294 -0.0194798 0.0312525 -1.62141 -0.0374241 0.0194538 -1.63733 -0.000114383 -0.00951109 -1.63699 -0.0170261 0.00395287 -1.62958 -0.031637 -0.0116847 -1.62744 -0.0203936 0.00270275 -1.62027 -0.0340206 0.0169115 -1.62168 -0.0452773 -0.0126768 -1.61867 -0.0219647 -0.0602009 -0.0608516 0.00499895 -0.0264901 -0.0715585 -0.000349707 -0.0747007 -0.0910634 0.00273065 -0.0385909 -0.102065 -0.00271422 0.00514035 -0.081038 -0.00603937 -0.0903008 -0.126202 0.000756184 0.00272733 -0.0301246 0.0147316 -0.00895084 -0.0266798 -0.00978279 -0.000971514 -0.00803907 0.0181073 -0.0122328 -0.00754203 -0.00535022 -0.018568 -0.0241922 -0.0302508 -0.00474553 0.0103244 0.0209554 0.0468866 -0.0285936 0.110756 0.0623791 -0.04535 0.128338 0.0666256 -0.0550572 0.14421 0.0443185 -0.0567191 0.0963625 0.02643 -0.0326104 0.0658824 0.0432443 -0.0223619 0.0955741 0.0245904 -0.0576509 0.0526467 0.0573454 -0.0357714 0.111868 0.0281026 -0.00924766 0.0785317 0.0467187 -0.0284965 -0.110904 0.045547 -0.0237907 -0.0959446 0.0279667 -0.00912492 -0.0786736 0.0262956 -0.0325026 -0.0659966 0.0441312 -0.0565811 -0.0964786 0.0645665 -0.046815 -0.128646 0.0244621 -0.0575079 -0.0526695 0.061002 -0.0371093 -0.111342 0.0664125 -0.054925 -0.144331 -0.0194103 -0.023547 0.0305889 -0.00941727 -0.0262873 0.00995529 -0.012666 -0.00714507 0.00546868 -0.00107169 -0.00801874 -0.018232 0.00259693 -0.0301914 -0.0148557 -0.00492 0.0103722 -0.0210809 -0.0472046 0.00355166 0.0150697 -0.0354471 0.0038826 0.0104362 -0.0158024 0.0103297 0.0147488 -0.0173245 -0.00891829 0.0100167 -0.0491301 -0.0215196 0.0101995 -0.0684231 -0.00618812 0.0105765 -0.0185081 -0.0326645 0.00514799 -0.0542687 -0.0028212 0.0064991 -0.081991 -0.00921394 0.0151048 -0.0273759 -1.60419 0.0144706 -0.0287091 -1.60574 0.0129347 -0.0161941 -1.60608 0.0131614 -0.0183977 -1.60773 0.0125173 -0.0335276 -1.6053 0.00840783 -0.00850972 -1.60694 0.0148203 0.02638 -1.60427 0.016423 0.0257086 -1.60583 0.0183526 0.0197015 -1.60617 0.00739511 0.0202333 -1.60781 0.00962152 0.0241746 -1.60539 0.0248079 0.0173273 -1.60703 -9.21883e-05 0.00121861 -1.60418 -0.0310893 0.00329501 -1.60575 -0.0314663 -0.00323067 -1.6061 -0.0208184 -0.00155346 -1.60777 -0.0223756 0.00962018 -1.60542 -0.0332736 -0.00849337 -1.60702 -0.014999 -0.00849337 -1.60702 -0.014999 -0.0185055 -1.60782 -0.0127019 -0.0162574 -1.60616 -0.0133841 -0.0288194 -1.60585 -0.0131045 -0.0335537 -1.60548 -0.00856972 -0.0275415 -1.60425 -0.0146665 0.0173273 -1.60703 -9.21883e-05 0.0203822 -1.60778 -0.0098858 0.019851 -1.60613 -0.00762682 0.0258929 -1.60579 -0.0186086 0.0243105 -1.60539 -0.0248678 0.0266326 -1.60418 -0.0167647 -0.00850972 -1.60694 0.0148203 -0.00158128 -1.60769 0.0223442 -0.00325468 -1.60603 0.0207531 0.00320661 -1.60569 0.0314944 0.00939083 -1.60532 0.033248 0.0012482 -1.60409 0.0312064 -0.020074 -1.6012 -0.00428009 -0.0143404 -1.60613 0.00187623 -0.0287456 -1.59995 -0.00423468 -0.0196883 -1.60678 0.00280747 -0.00583516 -1.6086 0.00988201 -0.0356066 -1.60093 -0.00292707 -0.0353028 -1.60118 0.00254116 -0.0194058 -1.60692 -0.00313842 -0.0283708 -1.6001 0.00388855 -0.0141223 -1.60626 -0.0021958 -0.00565222 -1.60862 -0.0101378 -0.0195673 -1.60149 0.00386208 0.00647222 -1.60158 0.0194296 0.00899655 -1.60637 0.0113852 0.010777 -1.60023 0.0268843 0.0124051 -1.60695 0.0154785 0.0116507 -1.60877 7.59193e-05 0.0152719 -1.60109 0.031969 0.0135798 -1.60148 -0.0152558 0.00538743 -1.60613 -0.0133597 0.0178036 -1.60036 -0.0227205 0.00735709 -1.60681 -0.0185037 -0.00565222 -1.60862 -0.0101378 0.0200418 -1.60133 -0.0292322 0.0156992 -1.60111 -0.0318472 0.012572 -1.60691 -0.0153866 0.0110814 -1.60007 -0.0267803 0.00903757 -1.60626 -0.0112409 0.0116507 -1.60877 7.59193e-05 0.00660735 -1.60125 -0.0194904 0.0198794 -1.60089 0.0293317 0.00714077 -1.60674 0.0183808 0.0177625 -1.59991 0.0227484 0.00529549 -1.60609 0.0132607 -0.00583516 -1.6086 0.00988201 0.0135768 -1.60116 0.0151794 -0.119241 -0.0286208 0.014918 -0.0998427 -0.0204821 0.00959115 -0.081991 -0.00921394 0.0151048 -0.0714562 -0.0339626 0.0101108 -0.106911 -0.0584003 0.00987668 -0.137448 -0.0424547 0.00936822 -0.0602009 -0.0608516 0.00499895 -0.115632 -0.030354 0.00475133 -0.158085 -0.0550663 0.0145433 0.00514035 -0.081038 -0.00603937 -0.00715278 -0.0557707 -0.000329217 0.0247497 -0.0525238 -0.00397989 0.0134432 -0.0319108 0.00178749 -0.0185081 -0.0326645 0.00514799 0.0397237 -0.0314585 -0.00134241 0.142265 -1.39098 -0.190912 0.0951608 -1.42508 -0.125543 0.127187 -1.44305 -0.167576 0.127789 -1.41267 -0.18241 0.142617 -1.35808 -0.205588 0.105941 -1.36901 -0.142711 0.129399 -1.38315 -0.197791 0.0624568 -1.40189 -0.0826653 0.155096 -1.33333 -0.213074 0.0942316 -1.39075 0.218395 0.0611412 -1.42488 0.1449 0.0815578 -1.44288 0.193707 0.0941306 -1.41246 0.201628 0.106792 -1.35784 0.226032 0.07062 -1.36878 0.162798 0.106676 -1.38288 0.210644 0.0402713 -1.40172 0.0950737 0.107027 -1.33309 0.240552 -0.23636 -1.39047 -0.0277451 -0.156175 -1.42461 -0.0197068 -0.208656 -1.44267 -0.0264143 -0.221814 -1.41225 -0.019475 -0.249268 -1.35759 -0.0206697 -0.176378 -1.36846 -0.0204356 -0.235958 -1.38268 -0.0130848 -0.102534 -1.40136 -0.0129046 -0.261933 -1.33279 -0.0277226 0.142093 -1.39072 0.190952 0.107571 -1.36651 0.145276 0.154933 -1.33297 0.213205 0.14243 -1.35784 0.205816 0.127697 -1.41257 0.182567 0.0968775 -1.42289 0.127857 0.129293 -1.38307 0.198383 0.0652995 -1.39738 0.086772 0.127186 -1.443 0.167457 -0.236392 -1.39068 0.0274344 -0.179566 -1.3665 0.0203439 -0.262058 -1.33295 0.0274483 -0.249425 -1.35778 0.0202994 -0.221953 -1.41251 0.019134 -0.159124 -1.42289 0.0197996 -0.236473 -1.38297 0.012611 -0.107843 -1.3974 0.0128747 -0.208609 -1.44295 0.0262235 0.0945145 -1.39098 -0.218578 0.0722364 -1.36677 -0.16584 0.107373 -1.33324 -0.240812 0.107227 -1.35809 -0.226305 0.0944508 -1.41281 -0.201927 0.0624962 -1.42314 -0.14788 0.107362 -1.3833 -0.211215 0.0427038 -1.39764 -0.0999927 0.0816204 -1.44325 -0.193932 -0.0898335 -0.124382 -0.00120454 -0.0766403 -0.0899706 -0.00334338 -0.124145 -0.0892031 -0.00819463 -0.109136 -0.0579919 -0.0104157 -0.0642053 -0.060194 -0.00574354 -0.158204 -0.0549317 -0.014967 0.0306998 -1.58263 -0.0715319 0.0220283 -1.59267 -0.0511036 0.023255 -1.57799 -0.0637075 0.0156173 -1.59151 -0.042346 0.0156992 -1.60111 -0.0318472 0.0158572 -1.57936 -0.0450016 0.0464315 -1.58238 0.0621862 0.0332522 -1.59246 0.0442387 0.0435946 -1.57781 0.0518699 0.0289926 -1.5913 0.0344646 0.0198794 -1.60089 0.0293317 0.0311876 -1.57909 0.0361096 0.0314405 -1.57938 -0.036208 0.0292163 -1.59178 -0.0344217 0.0440683 -1.57809 -0.0524091 0.0339538 -1.59286 -0.0444817 0.0200418 -1.60133 -0.0292322 0.0476234 -1.58274 -0.0633411 0.0157932 -1.57919 0.0454242 0.0152954 -1.59163 0.042609 0.0236008 -1.57791 0.0646141 0.02172 -1.59259 0.0518323 0.0152719 -1.60109 0.031969 0.0313416 -1.58243 0.0733693 -0.0195673 -1.60149 0.00386208 -0.00983603 -1.60635 0.000317947 -0.0119637 -1.60337 0.00303534 -0.00570004 -1.60803 0.00078005 -0.00178255 -1.60798 -0.00327575 -0.00703952 -1.60594 0.00182487 -0.0781692 -1.58207 0.00938074 -0.0553732 -1.59247 0.00672265 -0.0666227 -1.57795 0.0113712 -0.0442812 -1.5915 0.00767671 -0.0353028 -1.60118 0.00254116 -0.0470579 -1.57909 0.00872049 -0.0466692 -1.57896 -0.00920815 -0.0445267 -1.59137 -0.00820258 -0.0675776 -1.57772 -0.0121093 -0.0556926 -1.59249 -0.00716459 -0.0356066 -1.60093 -0.00292707 -0.0786176 -1.58247 -0.00973964 -0.00719436 -1.6057 -0.00222847 -0.005915 -1.60795 -0.00101638 -0.0122297 -1.60305 -0.0035184 -0.0101823 -1.60626 -0.000578506 -0.00192138 -1.60794 0.00311079 -0.020074 -1.6012 -0.00428009 0.0135768 -1.60116 0.0151794 0.00542296 -1.60623 0.00844168 0.00900511 -1.60306 0.00872896 0.00366445 -1.60794 0.00449629 -0.00192138 -1.60794 0.00311079 0.00527423 -1.60566 0.0049863 0.00660735 -1.60125 -0.0194904 0.00485724 -1.60641 -0.00904032 0.00326911 -1.60313 -0.0123679 0.00230802 -1.60812 -0.00554297 0.00390545 -1.60817 2.03007e-05 0.00186068 -1.60576 -0.00720484 0.00198536 -1.60594 0.00723905 0.00233738 -1.60818 0.00556228 0.00331884 -1.60337 0.0122344 0.00477721 -1.60651 0.00901205 0.00390545 -1.60817 2.03007e-05 0.00647222 -1.60158 0.0194296 0.00538046 -1.60596 -0.00519167 0.00379108 -1.6081 -0.00462322 0.00908999 -1.60337 -0.00887746 0.00553381 -1.60637 -0.00855013 -0.00178255 -1.60798 -0.00327575 0.0135798 -1.60148 -0.0152558 0.0128876 -0.0294094 -0.0109871 -0.00378771 -0.0269375 0.0127882 0.0170898 -0.00762339 -0.00885567 0.00120807 -0.00802819 0.0138682 -0.0178093 -0.0252351 0.0323559 0.0209062 0.0104246 -0.00643823 -0.0178786 -0.0251175 -0.0326548 -0.00385622 -0.0268428 -0.0130833 0.00118701 -0.00789969 -0.0142017 0.0170618 -0.00749761 0.00852589 0.0128786 -0.0293675 0.0106944 0.0209284 0.0105565 0.00601993 -0.0710671 -1.46557 0.113289 -0.0792964 -1.41866 0.127255 -0.0710688 -1.45649 0.118294 -0.0781941 -1.41167 0.131192 -0.0865548 -1.36636 0.140369 -0.069622 -1.45339 0.120949 0.00272733 -0.0301246 0.0147316 0.000116319 -0.0539516 -0.00245921 -0.00895084 -0.0266798 -0.00978279 -0.0109269 -0.0477989 -0.0263174 -0.00262347 -0.0794095 -0.0206728 -0.018568 -0.0241922 -0.0302508 -0.00850972 -1.60694 0.0148203 -0.0183977 -1.60773 0.0125173 -0.00923534 -1.60912 0.0160122 -0.0202578 -1.60898 0.0111513 -0.0335276 -1.6053 0.00840783 -0.00940085 -1.61084 0.0161795 -0.0485384 -0.0225251 -0.0101704 -0.047286 0.00366611 -0.0152611 -0.0821122 -0.0091415 -0.0153623 -0.016763 -0.00972251 -0.00993896 -0.015893 0.0103589 -0.0149365 -0.0171449 -0.0347134 -0.00481584 0.0173273 -1.60703 -9.21883e-05 0.0202333 -1.60781 0.00962152 0.0187133 -1.6092 -8.41968e-05 0.0199656 -1.60905 0.0119048 0.0241746 -1.60539 0.0248079 0.018916 -1.61089 -9.71855e-05 -0.00849337 -1.60702 -0.014999 -0.00155346 -1.60777 -0.0223756 -0.00915817 -1.60918 -0.0162039 0.000562966 -1.609 -0.0232722 0.00962018 -1.60542 -0.0332736 -0.00914345 -1.61083 -0.0164074 -0.00914345 -1.61083 -0.0164074 -0.0201172 -1.6091 -0.0113546 -0.00915817 -1.60918 -0.0162039 -0.0185055 -1.60782 -0.0127019 -0.0335537 -1.60548 -0.00856972 -0.00849337 -1.60702 -0.014999 0.018916 -1.61089 -9.71855e-05 0.0200488 -1.60904 -0.0119715 0.0187133 -1.6092 -8.41968e-05 0.0203822 -1.60778 -0.0098858 0.0243105 -1.60539 -0.0248678 0.0173273 -1.60703 -9.21883e-05 -0.00940085 -1.61084 0.0161795 0.00034496 -1.60897 0.0230848 -0.00923534 -1.60912 0.0160122 -0.00158128 -1.60769 0.0223442 0.00939083 -1.60532 0.033248 -0.00850972 -1.60694 0.0148203 0.102852 -0.325194 -0.176846 0.0692462 -0.337278 -0.12902 0.0862687 -0.272408 -0.149537 0.0537647 -0.282748 -0.104376 0.0363761 -0.348852 -0.0829537 0.0705744 -0.223541 -0.12334 0.101948 -0.324994 0.177249 0.0773544 -0.337094 0.12431 0.0866148 -0.27232 0.149325 0.0637664 -0.282649 0.0987333 0.0540095 -0.348639 0.0729358 0.0718284 -0.223588 0.122709 0.0729297 -0.028444 -0.0958621 0.0795724 -0.0440823 -0.116628 0.0920715 -0.0549024 -0.129662 0.0606371 -0.0575461 -0.0851218 0.0432352 -0.0333461 -0.0545531 0.060744 -0.0214087 -0.0837342 0.0316188 -0.0592847 -0.0451076 0.0669551 -0.0336522 -0.102629 0.0543789 -0.00912371 -0.0635253 0.0729292 -0.0284697 0.0955949 0.0608051 -0.0233062 0.086386 0.0544153 -0.00902961 0.0632228 0.0432346 -0.0333508 0.0542485 0.0606131 -0.0576039 0.0848257 0.0796012 -0.0463481 0.11927 0.0315533 -0.0593154 0.0447854 0.0667101 -0.0366985 0.107133 0.092014 -0.0549846 0.129398 0.00645627 -1.60433 -0.000579946 0.00361683 -1.61038 0.000173743 0.0105237 -1.60466 -0.00135251 0.00521621 -1.60989 0.000323468 0.00110464 -1.61237 0.00129337 0.0146173 -1.60405 -0.00285343 0.0142548 -1.60385 0.00228883 0.0048865 -1.60968 -0.000828501 0.0102005 -1.60447 0.00087688 0.00335582 -1.61021 -0.000603712 0.000811121 -1.61215 -0.00172545 0.00620117 -1.60419 0.000262648 -0.00308517 -1.60434 -0.0053232 -0.00131457 -1.61019 -0.00318365 -0.00594134 -1.60457 -0.00846072 -0.001942 -1.6097 -0.0046942 0.000811121 -1.61215 -0.00172545 -0.00930422 -1.60391 -0.0112182 -0.00274805 -1.60457 0.00525381 -0.00179887 -1.61041 0.00262244 -0.00403193 -1.6048 0.00924868 -0.00276241 -1.60992 0.00388622 -0.00158967 -1.61237 5.93427e-05 -0.00472237 -1.60413 0.0135117 -0.00481615 -1.60404 -0.0136602 -0.00282069 -1.60991 -0.00392499 -0.0040883 -1.60468 -0.00934129 -0.00189955 -1.61043 -0.0025967 -0.00158967 -1.61237 5.93427e-05 -0.0027324 -1.60444 -0.00531286 -0.00895691 -1.60418 0.0107442 -0.00162157 -1.60993 0.0042401 -0.00561588 -1.60485 0.00802769 -0.00100869 -1.61042 0.0027641 0.00110464 -1.61237 0.00129337 -0.00273759 -1.60461 0.00493274 0.00847588 -0.0903206 0.00787974 -0.0266807 -0.0759352 0.000790057 -0.0366854 -0.10665 0.00335342 -0.0766403 -0.0899706 -0.00334338 -0.0642053 -0.060194 -0.00574354 -0.0898335 -0.124382 -0.00120454 -0.0623808 -1.46541 -0.118312 -0.0717208 -1.41418 -0.13352 -0.0668298 -1.45621 -0.121006 -0.0756009 -1.40741 -0.134406 -0.080622 -1.35697 -0.146818 -0.0698818 -1.45317 -0.121122 0.133692 -1.46529 0.00475268 0.151504 -1.41401 0.0042353 0.138189 -1.45605 0.0022435 0.154198 -1.40727 0.00129698 0.167475 -1.35684 0.00313689 0.139848 -1.453 -0.000386754 -0.069622 -1.45339 0.120949 -0.0752735 -1.40755 0.13418 -0.0665656 -1.45638 0.120669 -0.0713822 -1.41437 0.132965 -0.0803373 -1.35694 0.146406 -0.0622938 -1.46569 0.1177 0.0547469 -0.698682 0.0769466 0.0354406 -0.782318 0.0436383 0.0243553 -0.699236 0.0205161 0.0022177 -0.783899 -0.0150809 0.0145062 -0.866484 0.0100045 -0.00875975 -0.70054 -0.0404591 -0.00875975 -0.70054 -0.0404591 0.0129566 -0.616352 -0.00514393 0.0243553 -0.699236 0.0205161 0.0427486 -0.616626 0.052309 0.0319818 -0.535086 0.0276363 0.0547469 -0.698682 0.0769466 -0.0940319 -0.698689 0.00857401 -0.05553 -0.782385 0.00849466 -0.0299722 -0.699294 0.0104166 0.0119563 -0.784009 0.00902554 -0.0159238 -0.866582 0.00716743 0.0394471 -0.700658 0.0121411 -0.0301471 -0.701312 0.0278957 -0.0104793 -0.616259 -0.00912181 0.00613564 -0.699876 -0.0313544 0.0242581 -0.616682 -0.0631876 0.00855296 -0.534837 -0.0420432 0.0394649 -0.699313 -0.0856835 0.0394649 -0.699313 -0.0856835 0.0203216 -0.782838 -0.0521764 0.00613564 -0.699876 -0.0313544 -0.0139637 -0.784493 0.00600274 0.00156626 -0.866819 -0.0169324 -0.0301471 -0.701312 0.0278957 0.0394471 -0.700658 0.0121411 -0.00197146 -0.616362 0.0132859 -0.0299722 -0.699294 0.0104166 -0.066688 -0.616572 0.0104903 -0.0398303 -0.534817 0.0134729 -0.0940319 -0.698689 0.00857401 0.129399 -1.38315 -0.197791 0.143324 -1.32371 -0.221005 0.142617 -1.35808 -0.205588 0.155036 -1.29597 -0.228337 0.155196 -1.25912 -0.243009 0.155096 -1.33333 -0.213074 0.106676 -1.38288 0.210644 0.119827 -1.32349 0.234352 0.106792 -1.35784 0.226032 0.120294 -1.29575 0.248146 0.132933 -1.25892 0.255647 0.107027 -1.33309 0.240552 -0.235958 -1.38268 -0.0130848 -0.262978 -1.32326 -0.0135556 -0.249268 -1.35759 -0.0206697 -0.275131 -1.29547 -0.0200367 -0.287914 -1.25867 -0.0128576 -0.261933 -1.33279 -0.0277226 -0.0602009 -0.0608516 0.00499895 -0.0747007 -0.0910634 0.00273065 -0.106911 -0.0584003 0.00987668 -0.12435 -0.0900929 0.00781887 -0.0903008 -0.126202 0.000756184 -0.158085 -0.0550663 0.0145433 -0.0194103 -0.023547 0.0305889 -0.0113871 -0.0471393 0.0264205 -0.00941727 -0.0262873 0.00995529 -4.17469e-05 -0.0539508 0.00243093 -0.00272583 -0.079311 0.0207459 0.00259693 -0.0301914 -0.0148557 0.0128876 -0.0294094 -0.0109871 -0.00125368 -0.0535014 0.000445254 -0.00378771 -0.0269375 0.0127882 -0.0176702 -0.0480261 0.0230249 -0.0161805 -0.0794295 0.0123119 -0.0178093 -0.0252351 0.0323559 0.0128786 -0.0293675 0.0106944 -0.00385622 -0.0268428 -0.0130833 -0.00129595 -0.0535883 -0.000856524 -0.0176877 -0.0482774 -0.02364 -0.0178786 -0.0251175 -0.0326548 -0.0163417 -0.0794888 -0.0130392 0.10859 -1.26677 0.152064 0.075758 -1.26147 0.104911 0.108513 -1.19799 0.15624 0.0748351 -1.19147 0.106136 0.044143 -1.25483 0.059537 0.107223 -1.12478 0.158161 0.0776396 -1.26706 -0.170101 0.0532408 -1.26176 -0.118087 0.0813169 -1.19828 -0.172114 0.0547802 -1.19177 -0.117893 0.0297713 -1.25511 -0.0679968 0.0836458 -1.12508 -0.171959 -0.185955 -1.2668 0.0178114 -0.128728 -1.26151 0.0129126 -0.189536 -1.19802 0.015636 -0.129327 -1.19151 0.0114815 -0.0736484 -1.25487 0.00817685 -0.190557 -1.12482 0.0135403 -0.180805 -1.13875 -0.0137612 -0.173226 -1.20957 -0.0154099 -0.243723 -1.1674 -0.0184769 -0.23213 -1.23589 -0.0204878 -0.163932 -1.27634 -0.0166893 -0.308906 -1.1934 -0.0236858 0.078692 -1.13908 0.163305 0.0734594 -1.2099 0.157565 0.106016 -1.16774 0.220173 0.0984604 -1.23623 0.211132 0.0676883 -1.27666 0.150154 0.134046 -1.19373 0.279247 0.102337 -1.13925 -0.149825 0.100009 -1.2101 -0.142456 0.137947 -1.16794 -0.201956 0.133909 -1.23644 -0.190911 0.0964917 -1.27688 -0.133785 0.175096 -1.19394 -0.255779 0.0451174 -1.53351 0.101285 0.026332 -1.54399 0.0581182 0.026434 -1.56013 0.0684776 0.0166194 -1.56805 0.0383608 0.0162072 -1.56023 0.0282473 0.0157932 -1.57919 0.0454242 0.0654607 -1.53375 -0.0898925 0.0369136 -1.54445 -0.0515766 0.0458885 -1.56057 -0.0566909 0.0249407 -1.56833 -0.0334314 0.0164044 -1.5605 -0.0281916 0.0314405 -1.57938 -0.036208 0.0158572 -1.57936 -0.0450016 0.0168633 -1.56838 -0.0379953 0.026298 -1.56076 -0.0679035 0.0265121 -1.54464 -0.0574669 0.0165812 -1.56057 -0.0280887 0.0453456 -1.5341 -0.1016 0.0311876 -1.57909 0.0361096 0.0246494 -1.56806 0.0333889 0.0457697 -1.56051 0.0565479 0.0366321 -1.54431 0.0514903 0.0161952 -1.56015 0.0281078 0.0653833 -1.53384 0.0898649 -0.110403 -1.53333 -0.011833 -0.0634098 -1.54446 -0.00603682 -0.0722856 -1.56032 -0.0114627 -0.0412589 -1.56797 -0.00454078 -0.0325337 -1.56049 6.57231e-05 -0.0466692 -1.57896 -0.00920815 -0.0470579 -1.57909 0.00872049 -0.0416156 -1.56792 0.00470344 -0.0719088 -1.56043 0.011068 -0.063248 -1.54413 0.00616606 -0.0328924 -1.55977 0.000294735 -0.110225 -1.53366 0.0114001 -0.0146678 -1.57274 0.039451 -0.0182619 -1.57624 0.0527732 -0.0213311 -1.55468 0.0515525 -0.0145503 -1.56439 0.0270103 -0.00980405 -1.58053 0.0206093 -0.0136236 -1.58952 0.0389983 -0.00713821 -1.57211 0.0116443 -0.0198533 -1.59597 0.0432172 -0.00984719 -1.58695 0.0292635 -0.0267542 -1.57247 -0.0328334 -0.0365022 -1.57603 -0.0426187 -0.0338887 -1.55441 -0.0446691 -0.0159979 -1.56411 -0.0264631 -0.0128384 -1.58025 -0.0191345 -0.0268993 -1.58931 -0.0316892 -0.00630926 -1.5718 -0.0122777 -0.02747 -1.59587 -0.0392226 -0.0203644 -1.5867 -0.0235449 -0.026446 -1.57279 0.032371 -0.0266523 -1.58959 0.0312488 -0.0200593 -1.58704 0.0230683 -0.0124868 -1.58059 0.0187008 -0.0156094 -1.56442 0.0260625 -0.0362363 -1.57638 0.0421976 -0.00576661 -1.5721 0.011861 -0.027317 -1.59615 0.038824 -0.0335784 -1.55471 0.0442677 -0.0150793 -1.57233 -0.0396981 -0.0139453 -1.58939 -0.0392366 -0.0101254 -1.58665 -0.0294713 -0.00998468 -1.58006 -0.0207857 -0.0148205 -1.56387 -0.027205 -0.0186674 -1.57622 -0.0529919 -0.0072962 -1.57127 -0.0118882 -0.0201453 -1.59608 -0.0434199 -0.0217776 -1.55429 -0.051803 0.0423958 -1.57224 -0.00711273 0.0558411 -1.57592 -0.0106461 0.056389 -1.55392 -0.00731974 0.0313492 -1.56374 -0.000920588 0.0232376 -1.58014 -0.00184568 0.0413452 -1.5893 -0.00787407 0.0138445 -1.57163 0.000469264 0.0483277 -1.59593 -0.00458615 0.0309494 -1.58669 -0.00631338 0.0416486 -1.5725 0.00663301 0.0407212 -1.58933 0.00733606 0.0303811 -1.58673 0.00575763 0.0228622 -1.58029 0.00145039 0.0307884 -1.56409 0.000479785 0.0550111 -1.57609 0.0101721 0.0137582 -1.57175 -0.000808025 0.0475584 -1.5958 0.00404921 0.0555015 -1.55439 0.00687915 -0.00565222 -1.60862 -0.0101378 -0.0194058 -1.60692 -0.00313842 -0.00770235 -1.61097 -0.0133324 -0.0215367 -1.609 -0.00615945 -0.0353028 -1.60118 0.00254116 -0.00914345 -1.61083 -0.0164074 -0.00940085 -1.61084 0.0161795 -0.0216825 -1.60876 0.00599184 -0.00772816 -1.61093 0.0131423 -0.0196883 -1.60678 0.00280747 -0.0356066 -1.60093 -0.00292707 -0.00583516 -1.6086 0.00988201 0.018916 -1.61089 -9.71855e-05 0.0161085 -1.60889 0.0156825 0.0154351 -1.61104 9.12506e-05 0.0124051 -1.60695 0.0154785 0.0152719 -1.60109 0.031969 0.0116507 -1.60877 7.59193e-05 0.0116507 -1.60877 7.59193e-05 0.012572 -1.60691 -0.0153866 0.0154351 -1.61104 9.12506e-05 0.0163343 -1.60882 -0.0156455 0.0156992 -1.60111 -0.0318472 0.018916 -1.61089 -9.71855e-05 -0.00583516 -1.6086 0.00988201 0.00714077 -1.60674 0.0183808 -0.00772816 -1.61093 0.0131423 0.00542964 -1.60871 0.0217571 0.0198794 -1.60089 0.0293317 -0.00940085 -1.61084 0.0161795 -0.00914345 -1.61083 -0.0164074 0.00548292 -1.60879 -0.0217769 -0.00770235 -1.61097 -0.0133324 0.00735709 -1.60681 -0.0185037 0.0200418 -1.60133 -0.0292322 -0.00565222 -1.60862 -0.0101378 3.75091e-18 -4.65489e-19 2.02922e-18 -1.65759e-18 -4.01616e-19 3.01977e-18 -2.77522e-18 3.5221e-18 6.69193e-18 -0.0061568 -0.0101478 -0.0262737 -0.00392628 -0.0132219 -0.0266793 1.38203e-18 1.20914e-17 -2.53883e-18 -0.0128291 -0.0218809 -0.0485572 1.3429e-18 5.9096e-18 -1.40364e-18 1.45361e-18 3.13479e-18 2.40621e-18 -1.06796e-17 1.07748e-18 1.40712e-19 -1.32646e-18 5.74136e-18 1.13922e-18 1.81812e-19 -2.01159e-18 -1.52223e-19 -0.00402965 -0.0132439 0.0267166 -0.0062439 -0.010172 0.0262871 2.48247e-18 -9.66516e-18 1.09387e-18 -0.0129974 -0.0219499 0.0486121 -2.83328e-18 2.14343e-18 1.30416e-18 5.35545e-19 6.38105e-18 4.29472e-19 -1.32545e-18 2.11959e-17 -2.76149e-19 -1.28499e-19 -6.74499e-18 -5.40459e-19 -1.62134e-18 -9.76113e-18 -1.05573e-18 0.0251454 -0.0132644 -0.00990025 0.0258507 -0.0101489 -0.00776762 -1.80044e-18 -2.22727e-18 1.8582e-19 0.0483988 -0.0219134 -0.0130199 -4.9125e-18 -5.50426e-19 -1.44176e-18 2.88295e-20 -4.51674e-18 -1.78194e-18 6.41045e-19 -1.35585e-17 3.27863e-18 -2.69892e-18 4.56373e-18 2.81988e-18 0 3.16178e-18 -1.39692e-18 -0.0211217 -0.0131522 -0.0165216 -0.0196434 -0.0100946 -0.0182001 -1.03181e-17 1.00378e-17 -4.89407e-18 -0.0358435 -0.0216389 -0.0349166 7.37438e-20 4.78793e-19 4.65595e-19 1.09786e-18 -1.86749e-18 6.80165e-19 -2.28382e-18 7.53676e-18 -2.08619e-18 2.86869e-18 -4.75085e-18 3.70439e-18 1.23259e-18 3.04056e-19 -1.37677e-18 -0.0194785 -0.0102825 0.0183388 -0.0208354 -0.0130117 0.0165229 -7.18094e-19 1.67843e-20 -7.49988e-19 -0.035458 -0.0223003 0.0351468 7.21315e-19 3.25471e-18 -1.49136e-18 1.06554e-18 3.50605e-19 -1.64905e-19 -1.85061e-17 -1.60287e-18 4.32413e-18 1.75021e-17 1.01885e-19 -4.95278e-18 -4.50644e-18 4.27603e-18 3.12172e-18 0.0256776 -0.0103073 0.00780663 0.024755 -0.0129482 0.0098041 -1.45995e-18 4.86003e-18 6.52597e-18 0.0482941 -0.0223271 0.0131666 -1.02237e-17 -8.7622e-18 -3.38871e-18 5.84657e-18 -9.8661e-18 5.42455e-18 0.00939083 -1.60532 0.033248 0.0170322 -1.60192 0.0447522 0.00320661 -1.60569 0.0314944 0.0119103 -1.60277 0.0441202 0.0263812 -1.59895 0.0580976 0.0012482 -1.60409 0.0312064 0.0243105 -1.60539 -0.0248678 0.0304176 -1.60202 -0.0371579 0.0258929 -1.60579 -0.0186086 0.0324522 -1.60285 -0.0324483 0.0373239 -1.59899 -0.0519921 0.0266326 -1.60418 -0.0167647 -0.0335537 -1.60548 -0.00856972 -0.0472094 -1.60203 -0.0077844 -0.0288194 -1.60585 -0.0131045 -0.0439005 -1.60296 -0.0119146 -0.0626865 -1.59899 -0.00642759 -0.0275415 -1.60425 -0.0146665 0.0102461 -1.59011 -0.0132361 0.0138604 -1.59619 -0.0150384 0.0187769 -1.58371 -0.0226832 0.0221765 -1.59258 -0.0245795 0.0135798 -1.60148 -0.0152558 0.0314405 -1.57938 -0.036208 0.00647496 -1.59001 0.015361 0.00620064 -1.59613 0.0194078 0.0103839 -1.58354 0.0275493 0.0103347 -1.5925 0.0315597 0.00647222 -1.60158 0.0194296 0.0157932 -1.57919 0.0454242 -0.0165881 -1.58955 -0.00256137 -0.0199013 -1.59571 -0.0046339 -0.0288769 -1.58326 -0.00496468 -0.0322935 -1.59218 -0.00694753 -0.020074 -1.6012 -0.00428009 -0.0466692 -1.57896 -0.00920815 0.0311876 -1.57909 0.0361096 0.0220048 -1.59216 0.0244797 0.0185415 -1.58339 0.0225826 0.0137115 -1.5958 0.0147906 0.0135768 -1.60116 0.0151794 0.0100394 -1.58973 0.0130492 0.0158572 -1.57936 -0.0450016 0.0104566 -1.59232 -0.0313204 0.0104958 -1.58358 -0.0274149 0.00617581 -1.59589 -0.0194538 0.00660735 -1.60125 -0.0194904 0.00646638 -1.58981 -0.0154462 -0.0470579 -1.57909 0.00872049 -0.0322101 -1.59233 0.00659957 -0.0289666 -1.58342 0.0046734 -0.0196136 -1.5961 0.00418469 -0.0195673 -1.60149 0.00386208 -0.0164425 -1.59001 0.00200282 0.00121861 -1.60418 -0.0310893 0.0114225 -1.60308 -0.0437254 0.00329501 -1.60575 -0.0314663 0.0169616 -1.60183 -0.0447366 0.0251432 -1.59957 -0.0571023 0.00962018 -1.60542 -0.0332736 0.02638 -1.60427 0.016423 0.0321581 -1.60309 0.0316256 0.0257086 -1.60583 0.0183526 0.030359 -1.60204 0.036763 0.0367778 -1.5992 0.0501514 0.0241746 -1.60539 0.0248079 -0.0273759 -1.60419 0.0144706 -0.0434576 -1.60301 0.0118719 -0.0287091 -1.60574 0.0129347 -0.0469954 -1.60199 0.00776692 -0.0617154 -1.59903 0.00651918 -0.0335276 -1.6053 0.00840783 -0.135812 -1.54401 7.91975e-05 -0.131784 -1.54606 -0.0035047 -0.104652 -1.5727 -0.000226304 -0.102033 -1.57445 -0.001125 -0.123514 -1.55329 -0.00673668 -0.0806359 -1.59393 -0.000511913 0.0680734 -1.54438 0.117524 0.0629516 -1.54627 0.115717 0.0523615 -1.57248 0.0906272 0.0500306 -1.57398 0.0888257 0.0559766 -1.55364 0.110088 0.0401263 -1.59391 0.0700011 0.0401263 -1.59391 0.0700011 0.051998 -1.57399 0.0873587 0.0523615 -1.57248 0.0906272 0.0681964 -1.54734 0.111925 0.0654993 -1.5551 0.101369 0.0680734 -1.54438 0.117524 -0.0806359 -1.59393 -0.000511913 -0.101886 -1.57421 0.000942967 -0.104652 -1.5727 -0.000226304 -0.131378 -1.54706 0.00307713 -0.121181 -1.5549 0.00607072 -0.135812 -1.54401 7.91975e-05 0.0679124 -1.54451 -0.117703 0.0690445 -1.5465 -0.112349 0.0523352 -1.57246 -0.0907149 0.0519766 -1.57363 -0.0876521 0.0677427 -1.55394 -0.103509 0.0404484 -1.59391 -0.0699635 0.0404484 -1.59391 -0.0699635 0.0496148 -1.57395 -0.0886759 0.0523352 -1.57246 -0.0907149 0.0629507 -1.54761 -0.115007 0.0553439 -1.55532 -0.107557 0.0679124 -1.54451 -0.117703 0.00110464 -1.61237 0.00129337 0.00361683 -1.61038 0.000173743 0.000657941 -1.61282 0.00073438 0.000725607 -1.61079 0.000752831 0.00645627 -1.60433 -0.000579946 0.0003274 -1.61235 0.000327595 0.000109925 -1.61219 -0.000548117 0.000522952 -1.61067 -0.00107148 0.000404711 -1.61261 -0.0010807 0.00335582 -1.61021 -0.000603712 0.00620117 -1.60419 0.000262648 0.000811121 -1.61215 -0.00172545 0.000811121 -1.61215 -0.00172545 -0.00131457 -1.61019 -0.00318365 0.000404711 -1.61261 -0.0010807 0.000310797 -1.61067 -0.00104932 -0.00308517 -1.60434 -0.0053232 0.000109925 -1.61219 -0.000548117 -0.00158967 -1.61237 5.93427e-05 -0.00179887 -1.61041 0.00262244 -0.000850781 -1.61281 0.000132259 -0.000771997 -1.6109 0.000221544 -0.00274805 -1.60457 0.00525381 -0.000251865 -1.61238 0.000155168 -0.0335276 -1.6053 0.00840783 -0.0360385 -1.60409 0.00207368 -0.0202578 -1.60898 0.0111513 -0.0216825 -1.60876 0.00599184 -0.0356066 -1.60093 -0.00292707 -0.00940085 -1.61084 0.0161795 -0.000251865 -1.61238 0.000155168 -0.000895476 -1.61089 0.000112692 -0.000850781 -1.61281 0.000132259 -0.00189955 -1.61043 -0.0025967 -0.0027324 -1.60444 -0.00531286 -0.00158967 -1.61237 5.93427e-05 0.0003274 -1.61235 0.000327595 0.000598331 -1.61089 0.00070079 0.000657941 -1.61282 0.00073438 -0.00100869 -1.61042 0.0027641 -0.00273759 -1.60461 0.00493274 0.00110464 -1.61237 0.00129337 0.0241746 -1.60539 0.0248079 0.0198824 -1.6042 0.0300576 0.0199656 -1.60905 0.0119048 0.0161085 -1.60889 0.0156825 0.0152719 -1.60109 0.031969 0.018916 -1.61089 -9.71855e-05 0.00962018 -1.60542 -0.0332736 0.016085 -1.60432 -0.0321622 0.000562966 -1.609 -0.0232722 0.00548292 -1.60879 -0.0217769 0.0200418 -1.60133 -0.0292322 -0.00914345 -1.61083 -0.0164074 -0.00914345 -1.61083 -0.0164074 -0.0215367 -1.609 -0.00615945 -0.0201172 -1.6091 -0.0113546 -0.0358291 -1.60427 -0.00234657 -0.0353028 -1.60118 0.00254116 -0.0335537 -1.60548 -0.00856972 -0.00940085 -1.61084 0.0161795 0.00542964 -1.60871 0.0217571 0.00034496 -1.60897 0.0230848 0.0158515 -1.60409 0.0321401 0.0198794 -1.60089 0.0293317 0.00939083 -1.60532 0.033248 0.018916 -1.61089 -9.71855e-05 0.0163343 -1.60882 -0.0156455 0.0200488 -1.60904 -0.0119715 0.020165 -1.60421 -0.0298513 0.0156992 -1.60111 -0.0318472 0.0243105 -1.60539 -0.0248678 0.139848 -1.453 -0.000386754 0.153613 -1.40842 -0.00298961 0.138073 -1.45616 -0.00301031 0.150332 -1.41581 -0.0058559 0.165989 -1.35979 -0.00571092 0.133418 -1.46587 -0.00541804 -0.0698818 -1.45317 -0.121122 -0.0790043 -1.40853 -0.131767 -0.0711496 -1.45617 -0.118343 -0.0798079 -1.41579 -0.127561 -0.0876177 -1.35989 -0.141181 -0.0707408 -1.46553 -0.113157 0.0306998 -1.58263 -0.0715319 0.0265421 -1.59721 -0.0469218 0.0220283 -1.59267 -0.0511036 0.020165 -1.60421 -0.0298513 0.0243105 -1.60539 -0.0248678 0.0156992 -1.60111 -0.0318472 0.0464315 -1.58238 0.0621862 0.0273162 -1.59712 0.0462082 0.0332522 -1.59246 0.0442387 0.0158515 -1.60409 0.0321401 0.00939083 -1.60532 0.033248 0.0198794 -1.60089 0.0293317 -0.0781692 -1.58207 0.00938074 -0.0541255 -1.59712 0.0006142 -0.0553732 -1.59247 0.00672265 -0.0358291 -1.60427 -0.00234657 -0.0335537 -1.60548 -0.00856972 -0.0353028 -1.60118 0.00254116 0.0200418 -1.60133 -0.0292322 0.016085 -1.60432 -0.0321622 0.0339538 -1.59286 -0.0444817 0.0278775 -1.59735 -0.0464948 0.00962018 -1.60542 -0.0332736 0.0476234 -1.58274 -0.0633411 0.0152719 -1.60109 0.031969 0.0198824 -1.6042 0.0300576 0.02172 -1.59259 0.0518323 0.026551 -1.59715 0.0475206 0.0241746 -1.60539 0.0248079 0.0313416 -1.58243 0.0733693 -0.0356066 -1.60093 -0.00292707 -0.0360385 -1.60409 0.00207368 -0.0556926 -1.59249 -0.00716459 -0.0542341 -1.5971 -0.000845874 -0.0335276 -1.6053 0.00840783 -0.0786176 -1.58247 -0.00973964 -0.328229 -1.11655 0.0202383 -0.263832 -1.08095 0.0156278 -0.344839 -1.03593 0.0167431 -0.338671 -1.07421 0.0137895 -0.320529 -1.15225 0.0164043 -0.249076 -1.1606 0.0180399 -0.330311 -1.11175 0.0100614 -0.190557 -1.12482 0.0135403 -0.308908 -1.19352 0.0234414 0.181806 -1.11652 0.274102 0.174626 -1.15227 0.269346 0.174908 -1.19349 0.25578 0.140349 -1.16057 0.206628 0.145652 -1.08091 0.220606 0.181445 -1.07421 0.286351 0.107223 -1.12478 0.158161 0.174029 -1.1118 0.280975 0.187098 -1.0359 0.290222 0.146756 -1.1168 -0.29448 0.14622 -1.15254 -0.285906 0.134302 -1.19377 -0.279363 0.109038 -1.16085 -0.224863 0.118523 -1.0812 -0.236438 0.157579 -1.07451 -0.300297 0.0836458 -1.12508 -0.171959 0.156601 -1.11206 -0.291172 0.158117 -1.03618 -0.307111 0.0573492 -0.699112 -0.0815386 0.0449493 -0.614856 -0.0560316 0.025721 -0.699774 -0.0235711 0.0139536 -0.61458 0.00288649 0.0336461 -0.531051 -0.0310418 -0.00849127 -0.701125 0.039173 0.0420803 -0.698926 0.0897355 0.0264739 -0.614441 0.0663673 0.00776636 -0.699634 0.033637 -0.00927977 -0.6137 0.0110508 0.0101285 -0.530576 0.0440401 -0.0290882 -0.700986 -0.0270321 -0.098842 -0.698648 -0.00883249 -0.0708771 -0.614126 -0.0107071 -0.0330185 -0.699374 -0.0105488 -0.0050423 -0.613411 -0.0140254 -0.0434748 -0.530241 -0.0137882 0.0379969 -0.700697 -0.0120904 0.135627 -1.45544 -0.0148489 0.0730903 -1.50903 -0.00347669 0.107289 -1.50259 -0.00887072 0.12527 -1.48105 -0.00683193 0.143461 -1.4346 -0.00955858 0.0927246 -1.46049 -0.00855817 0.133418 -1.46587 -0.00541804 0.0436149 -1.51303 -0.00119034 0.156017 -1.40129 -0.0150836 -0.0802923 -1.45515 -0.110289 -0.0389518 -1.50969 -0.0613229 -0.0609899 -1.50293 -0.0884975 -0.0682231 -1.48095 -0.105407 -0.0795332 -1.4345 -0.119761 -0.0535044 -1.4603 -0.0761844 -0.0707408 -1.46553 -0.113157 -0.0220536 -1.51424 -0.0361846 -0.0905859 -1.40128 -0.127873 -0.0797603 -1.45534 0.109806 -0.0531083 -1.46027 0.0758557 -0.0897514 -1.40147 0.126755 -0.079181 -1.43463 0.119524 -0.0681572 -1.4811 0.10527 -0.038557 -1.50985 0.0611011 -0.0710671 -1.46557 0.113289 -0.0213488 -1.51429 0.0358939 -0.0607216 -1.50314 0.0882729 0.135161 -1.455 0.0140438 0.0924952 -1.45992 0.00790115 0.154679 -1.401 0.014199 0.143292 -1.43426 0.00870819 0.125424 -1.48079 0.00624794 0.0724981 -1.50947 0.00273535 0.133692 -1.46529 0.00475268 0.0421656 -1.51388 0.000397838 0.107062 -1.50279 0.00835579 -0.0549876 -1.45527 -0.124284 -0.0390167 -1.46022 -0.0842442 -0.0646275 -1.40135 -0.141345 -0.0637051 -1.43453 -0.128659 -0.0568869 -1.48098 -0.111871 -0.0334775 -1.50972 -0.0642987 -0.0623808 -1.46541 -0.118312 -0.0202613 -1.51422 -0.0367435 -0.0459053 -1.503 -0.0970616 -0.054979 -1.4554 0.124649 -0.0332821 -1.50992 0.0643331 -0.0457589 -1.50315 0.0970054 -0.0568331 -1.48114 0.111735 -0.0636488 -1.43473 0.128841 -0.0388737 -1.46055 0.0843788 -0.0622938 -1.46569 0.1177 -0.0199866 -1.51449 0.0371314 -0.0650611 -1.4015 0.142291 0.12077 -1.2661 0.261161 0.0879666 -1.30666 0.195693 0.107027 -1.33309 0.240552 0.120294 -1.29575 0.248146 0.133601 -1.22661 0.268363 0.0984604 -1.23623 0.211132 0.132933 -1.25892 0.255647 0.0676883 -1.27666 0.150154 0.134046 -1.19373 0.279247 -0.286627 -1.26578 -0.0261299 -0.213526 -1.30634 -0.0218465 -0.261933 -1.33279 -0.0277226 -0.275131 -1.29547 -0.0200367 -0.29926 -1.22632 -0.0186322 -0.23213 -1.23589 -0.0204878 -0.287914 -1.25867 -0.0128576 -0.163932 -1.27634 -0.0166893 -0.308906 -1.1934 -0.0236858 0.166078 -1.26632 -0.235258 0.165891 -1.22682 -0.249954 0.175096 -1.19394 -0.255779 0.133909 -1.23644 -0.190911 0.125784 -1.30688 -0.174129 0.155036 -1.29597 -0.228337 0.0964917 -1.27688 -0.133785 0.155196 -1.25912 -0.243009 0.155096 -1.33333 -0.213074 0.0409765 -1.51056 -0.0622365 0.0552331 -1.45865 -0.0733082 0.0238294 -1.51507 -0.0371447 0.0335402 -1.46234 -0.0434431 0.0624568 -1.40189 -0.0826653 0.00860711 -1.51765 -0.0130279 0.0335475 -1.51046 0.0662726 0.0358798 -1.45855 0.0840478 0.0203661 -1.5148 0.0390639 0.0208824 -1.46229 0.0504256 0.0402713 -1.40172 0.0950737 0.00705518 -1.51727 0.0138809 -0.0743218 -1.51035 -0.00423839 -0.0908407 -1.45826 -0.011202 -0.0440776 -1.51458 -0.00201166 -0.0541474 -1.46196 -0.00741249 -0.102534 -1.40136 -0.0129046 -0.015588 -1.51688 -0.00118146 -0.0480628 -1.62113 0.00794742 -0.0494836 -1.61253 0.00675637 -0.030894 -1.61999 0.0145147 -0.0324044 -1.61106 0.0131726 -0.050975 -1.60702 0.00593994 -0.0125721 -1.61853 0.0218444 -0.0125721 -1.61853 0.0218444 0.00490501 -1.61116 0.0348483 0.00281632 -1.62004 0.034053 0.0188644 -1.61264 0.0463872 0.0204539 -1.60723 0.0474957 0.0169412 -1.62124 0.0455162 0.0310258 -1.62123 0.0374816 0.0307315 -1.61264 0.03935 0.0281682 -1.6201 0.0193488 0.0277854 -1.6112 0.0213654 0.0307835 -1.60714 0.0411088 0.0254062 -1.61865 -0.000142709 -0.0479176 -1.62134 -0.00817035 -0.0495402 -1.61272 -0.00695572 -0.0610059 -1.61883 -0.0038234 -0.0617442 -1.61163 -0.00326873 -0.0512065 -1.60726 -0.00613012 -0.0662354 -1.61727 -7.03796e-05 0.0254062 -1.61865 -0.000142709 0.0279531 -1.6113 -0.0217313 0.0283289 -1.62018 -0.0195146 0.0309694 -1.61279 -0.0395543 0.0311369 -1.60736 -0.0415097 0.0312525 -1.62141 -0.0374241 0.0169115 -1.62168 -0.0452773 0.0188023 -1.61281 -0.046268 0.00270275 -1.62027 -0.0340206 0.00479781 -1.61125 -0.0348163 0.0203552 -1.60722 -0.047335 -0.0126768 -1.61867 -0.0219647 -0.0662354 -1.61727 -7.03796e-05 -0.0616558 -1.6115 0.00306788 -0.061107 -1.6187 0.00364091 -0.0494836 -1.61253 0.00675637 -0.050975 -1.60702 0.00593994 -0.0480628 -1.62113 0.00794742 0.0169412 -1.62124 0.0455162 0.0188644 -1.61264 0.0463872 0.0272127 -1.61882 0.0546158 0.0281682 -1.61165 0.0551126 0.0204539 -1.60723 0.0474957 0.0330974 -1.61738 0.0572024 0.0330974 -1.61738 0.0572024 0.0335984 -1.6116 0.0517727 0.0337897 -1.61879 0.0508938 0.0307315 -1.61264 0.03935 0.0307835 -1.60714 0.0411088 0.0310258 -1.62123 0.0374816 0.0331402 -1.61735 -0.0571067 0.0282197 -1.61172 -0.0549928 0.0272157 -1.61894 -0.0544483 0.0188023 -1.61281 -0.046268 0.0203552 -1.60722 -0.047335 0.0169115 -1.62168 -0.0452773 0.0312525 -1.62141 -0.0374241 0.0309694 -1.61279 -0.0395543 0.0339043 -1.61886 -0.0508197 0.0338509 -1.61174 -0.0519424 0.0311369 -1.60736 -0.0415097 0.0331402 -1.61735 -0.0571067 -0.0126768 -1.61867 -0.0219647 -0.0325447 -1.61128 -0.0133274 -0.0308755 -1.62017 -0.0147055 -0.0495402 -1.61272 -0.00695572 -0.0512065 -1.60726 -0.00613012 -0.0479176 -1.62134 -0.00817035 -0.0171449 -0.0347134 -0.00481584 -0.00480722 -0.0609522 0.00136917 0.014056 -0.0327675 -0.00169606 0.0261393 -0.055936 0.00491346 0.00847588 -0.0903206 0.00787974 0.0397077 -0.0313149 0.00123051 0.0369433 -0.128832 -0.0656839 0.00790768 -0.102162 -0.0227636 0.0339804 -0.0913756 -0.0552137 0.00705383 -0.0701862 -0.0148009 -0.0161805 -0.0794295 0.0123119 0.0316188 -0.0592847 -0.0451076 0.0315533 -0.0593154 0.0447854 0.00698361 -0.0702375 0.0144023 0.0338948 -0.0914598 0.0549144 0.00777547 -0.102255 0.0224206 -0.0163417 -0.0794888 -0.0130392 0.0368176 -0.128973 0.0654443 0.0404484 -1.59391 -0.0699635 0.0343663 -1.59643 -0.0663505 0.0338615 -1.59985 -0.0586902 0.0264144 -1.60071 -0.0581871 0.0251432 -1.59957 -0.0571023 0.0323506 -1.60093 -0.0560646 0.0401263 -1.59391 0.0700011 0.0400618 -1.5965 0.062907 0.0338716 -1.59982 0.0585598 0.0372182 -1.60064 0.0518092 0.0367778 -1.5992 0.0501514 0.0324065 -1.60086 0.0558703 -0.0806359 -1.59393 -0.000511913 -0.0743648 -1.59633 0.00296677 -0.0676446 -1.59987 -0.000151553 -0.0634911 -1.60058 0.00613592 -0.0617154 -1.59903 0.00651918 -0.0645447 -1.60088 -3.05858e-05 0.0323506 -1.60093 -0.0560646 0.0372772 -1.60059 -0.052293 0.0338615 -1.59985 -0.0586902 0.0401975 -1.59628 -0.0634375 0.0373239 -1.59899 -0.0519921 0.0404484 -1.59391 -0.0699635 0.0324065 -1.60086 0.0558703 0.0266669 -1.60053 0.0582476 0.0338716 -1.59982 0.0585598 0.0347274 -1.59618 0.0662869 0.0263812 -1.59895 0.0580976 0.0401263 -1.59391 0.0700011 -0.0645447 -1.60088 -3.05858e-05 -0.0636191 -1.60058 -0.00624767 -0.0676446 -1.59987 -0.000151553 -0.0744199 -1.59615 -0.00333627 -0.0626865 -1.59899 -0.00642759 -0.0806359 -1.59393 -0.000511913 0.127861 -1.27415 -0.252882 0.133174 -1.27932 -0.247012 0.117515 -1.33078 -0.233132 0.123027 -1.33567 -0.227024 0.138149 -1.28609 -0.24113 0.107362 -1.3833 -0.211215 -0.282732 -1.27382 0.0157456 -0.280294 -1.27893 0.0081871 -0.260479 -1.33045 0.0147965 -0.257972 -1.33529 0.00692153 -0.27767 -1.28564 0.000906636 -0.236473 -1.38297 0.012611 0.155144 -1.27389 0.236959 0.147398 -1.27908 0.238617 0.143201 -1.33054 0.218131 0.135159 -1.33544 0.219847 0.139817 -1.28586 0.239977 0.129293 -1.38307 0.198383 -7.65873e-18 0 7.35329e-18 0.0302533 -0.0108593 -0.0019437 -1.379e-17 -1.00604e-17 -5.40001e-18 5.04818e-18 2.34061e-18 -3.84076e-18 -1.39461e-18 -8.2017e-19 -2.0424e-18 0.0281453 -0.00897058 -0.00565922 -3.18406e-19 1.06521e-18 -3.70227e-20 0.0523426 -0.0185721 -0.00360046 2.88295e-20 -4.51674e-18 -1.78194e-18 3.03222e-18 -6.65301e-18 -8.47223e-18 -0.013407 -0.0109625 0.0272397 -2.04772e-18 1.63978e-17 4.33676e-18 7.32403e-18 2.75246e-18 7.91596e-18 -4.64982e-18 1.33175e-17 5.23388e-18 -0.00916026 -0.00904019 0.0272087 1.69863e-18 -2.49677e-18 -1.59777e-18 -0.0229552 -0.018801 0.0471849 5.35545e-19 6.38105e-18 4.29472e-19 -0.334271 -0.29906 -0.0107886 -0.346975 -0.334049 -0.00625936 -0.357928 -0.368898 -0.00925069 -0.284762 -0.350589 -0.00546334 -0.261178 -0.28247 -0.00661489 -0.320344 -0.267895 -0.00711764 -0.216467 -0.331773 -0.00130885 -0.333538 -0.29809 -0.00309798 -0.30522 -0.235785 -0.0119813 0.0992052 -1.47884 -0.151923 0.10288 -1.45766 -0.167225 0.114691 -1.43356 -0.174899 0.116788 -1.40986 -0.1899 0.104773 -1.43661 -0.180736 0.129399 -1.38315 -0.197791 -0.181361 -1.4785 -0.0101581 -0.196314 -1.4573 -0.00549013 -0.208896 -1.43313 -0.0119306 -0.222853 -1.40943 -0.0061319 -0.208832 -1.43621 -0.000258703 -0.235958 -1.38268 -0.0130848 0.0820468 -1.47868 0.161924 0.0934664 -1.45743 0.172552 0.0941889 -1.43331 0.186636 0.106142 -1.40959 0.19587 0.104244 -1.43636 0.180889 0.106676 -1.38288 0.210644 -0.0066388 -0.0493687 -0.00865501 -0.0143902 -0.0479058 -0.0279232 -0.00786105 -0.0506614 -0.00790345 -0.00439495 -0.0301662 -0.00760145 -0.00340005 -0.0269867 -0.00542918 -0.0139069 -0.0477625 -0.0298192 -0.0159745 -0.0304267 -0.0292994 3.71332e-18 9.34817e-18 7.1782e-18 -0.0196346 -0.0416264 -0.0462324 -0.00508615 -0.0481546 -0.00852635 0.0115938 -0.0498534 -0.00116931 0.0321144 -0.0481799 0.00195014 0.012169 -0.0513772 -0.00257353 0.00938014 -0.0307158 0.000218282 0.00684703 -0.0273163 3.66751e-05 0.0334385 -0.048139 0.00332627 0.0339917 -0.0309692 0.00125429 -1.379e-17 -1.00604e-17 -5.40001e-18 0.0503924 -0.0418478 0.00666266 0.010549 -0.048593 0.000184028 -0.00479764 -0.0496519 0.0107486 -0.0175989 -0.0479382 0.0269316 -0.0038967 -0.0511248 0.0120564 -0.00495 -0.0306088 0.00807248 -0.00348218 -0.0272544 0.00592042 -0.0194416 -0.0479933 0.0273093 -0.018022 -0.0309068 0.0288041 -2.04772e-18 1.63978e-17 4.33676e-18 -0.0306155 -0.041659 0.0402456 -0.00541947 -0.0484717 0.00908468 3.24391e-18 -8.66112e-18 -6.51561e-18 -0.00902346 -0.00887536 -0.0269899 -2.77522e-18 3.5221e-18 6.69193e-18 -2.39286e-19 8.073e-18 -7.15382e-18 -2.98658e-18 6.12538e-18 7.34027e-18 -0.0132861 -0.0107297 -0.0269749 -6.55015e-18 4.64091e-18 5.19029e-18 -0.0230067 -0.0183175 -0.0467504 -2.40809e-19 -7.82435e-18 3.43991e-18 0.129293 -1.38307 0.198383 0.116676 -1.40966 0.190424 0.114908 -1.4335 0.175275 0.102866 -1.45736 0.167321 0.104244 -1.43636 0.180889 0.0997729 -1.47868 0.151526 -0.236473 -1.38297 0.012611 -0.22331 -1.4095 0.00568363 -0.209352 -1.4334 0.0116989 -0.196561 -1.45736 0.00529679 -0.208832 -1.43621 -0.000258703 -0.181329 -1.47867 0.0105396 0.107362 -1.3833 -0.211215 0.106786 -1.40987 -0.196298 0.0945349 -1.43373 -0.187209 0.0936673 -1.45756 -0.172778 0.104773 -1.43661 -0.180736 0.0815335 -1.4789 -0.162239 -0.0371441 -0.422062 -0.139661 -0.0471445 -0.407822 -0.130495 -0.0282291 -0.337516 -0.134676 -0.0140159 -0.355737 -0.0920089 -0.0170113 -0.439992 -0.0866388 -0.0570006 -0.49662 -0.140649 0.00606647 -0.376811 -0.039438 -0.0618953 -0.473658 -0.129733 -0.0492495 -0.514058 -0.146612 -0.10184 -0.421937 0.101733 -0.0892808 -0.410785 0.105925 -0.102607 -0.337422 0.0917138 -0.0721152 -0.355771 0.0577431 -0.0660862 -0.43993 0.0582301 -0.0927094 -0.498659 0.119949 -0.0354029 -0.376869 0.0141771 -0.0815889 -0.479535 0.120895 -0.101857 -0.513389 0.115757 0.0475584 -1.5958 0.00404921 0.0421535 -1.61072 -0.0021759 0.0353599 -1.60414 0.00131297 0.0307251 -1.61647 -0.00528034 0.0362691 -1.6244 -0.00881499 0.0242626 -1.61048 -0.00213492 -0.0106991 -1.61039 -0.0222995 -0.0109212 -1.61645 -0.0292973 -0.0191114 -1.60412 -0.0301235 -0.0192807 -1.61077 -0.0375254 -0.0104775 -1.62429 -0.0356053 -0.02747 -1.59587 -0.0392226 -0.0201453 -1.59608 -0.0434199 -0.0226641 -1.61087 -0.0355523 -0.0163179 -1.6043 -0.0315766 -0.019661 -1.6165 -0.0241816 -0.0254243 -1.62434 -0.0271678 -0.0136735 -1.61055 -0.0203184 0.0245948 -1.61057 0.00166062 0.0308028 -1.61657 0.00494438 0.035843 -1.60426 -0.00182499 0.042367 -1.61101 0.00172533 0.036027 -1.62441 0.00845989 0.0483277 -1.59593 -0.00458615 -0.01365 -1.6106 0.0203083 -0.0195604 -1.61658 0.023997 -0.0161721 -1.60427 0.0314654 -0.0225004 -1.61086 0.0353345 -0.0252678 -1.62442 0.0268461 -0.0198533 -1.59597 0.0432172 -0.027317 -1.59615 0.038824 -0.0190669 -1.61091 0.0371605 -0.0188699 -1.60438 0.0297021 -0.0106623 -1.6166 0.0289334 -0.01022 -1.62436 0.035185 -0.010377 -1.61062 0.0219135 0.0114876 -0.0494492 0.00102619 0.0333411 -0.0479003 -0.00329282 0.0105448 -0.0483206 -0.000313599 0.00684825 -0.0271127 -8.45355e-05 0.00929675 -0.0304654 -0.000271829 0.0338948 -0.0307368 -0.00117869 0.0319316 -0.047762 -0.00189417 -7.13936e-19 5.7311e-18 7.21672e-18 0.0501686 -0.0416635 -0.00644404 0.0117231 -0.0507849 0.00248415 -0.00666976 -0.0492549 0.0094304 -0.0138436 -0.0477337 0.0303868 -0.00499752 -0.0481677 0.00922549 -0.00331344 -0.027007 0.00595687 -0.0043764 -0.0303188 0.00822331 -0.015895 -0.0306041 0.0298652 -0.0144125 -0.0475707 0.0285117 -3.51364e-18 9.71414e-18 2.24184e-18 -0.019548 -0.0414726 0.0464908 -0.00810977 -0.0505421 0.00896636 -0.00496517 -0.0501321 -0.0101534 -0.0197598 -0.0485362 -0.0271835 -0.00565577 -0.0489249 -0.00877795 -0.00353899 -0.0274671 -0.00576902 -0.00491622 -0.0308899 -0.00770911 -0.0181509 -0.0311124 -0.0287371 -0.0178767 -0.048507 -0.026634 -2.40809e-19 -7.82435e-18 3.43991e-18 -0.0309575 -0.0423181 -0.0403624 -0.0039506 -0.0516254 -0.0109828 5.22101e-18 -1.29355e-18 -4.43275e-18 -0.0218316 -0.00897333 -0.00935373 7.83625e-19 -6.71904e-18 3.41228e-18 -4.71474e-18 -4.67808e-18 3.68568e-18 7.41474e-18 -3.71189e-18 4.10959e-18 -0.0229931 -0.0165098 -0.0140948 -0.0186707 -0.00707286 -0.0114611 0 3.16178e-18 -1.39692e-18 -0.0489761 -0.0295607 -0.0288783 -1.47693e-18 1.78314e-18 -8.42674e-19 -3.79532e-18 -3.34755e-18 4.3708e-19 0.00281071 -0.0090866 0.023762 -1.14829e-18 -5.56633e-18 -2.39884e-18 1.24633e-17 8.66077e-19 -1.09709e-18 -4.56033e-18 -1.25276e-19 6.48314e-19 -0.000816552 -0.0166422 0.0271808 -0.000589883 -0.00721167 0.0220404 1.81812e-19 -2.01159e-18 -1.52223e-19 -0.000464858 -0.029885 0.0569314 -3.06327e-18 1.57125e-18 -1.71687e-18 -1.52389e-18 -5.57651e-18 -2.11256e-18 0.0192163 -0.00909474 -0.0143123 -1.376e-18 1.10714e-19 -4.92145e-18 -6.12725e-19 3.39764e-18 2.03483e-18 -3.49322e-19 3.07867e-18 4.36457e-19 0.0240006 -0.01667 -0.0128538 0.0194241 -0.00719558 -0.0105118 -1.62134e-18 -9.76113e-18 -1.05573e-18 0.0495766 -0.0299276 -0.0281016 -7.77906e-19 -4.88495e-18 1.10638e-18 0.024199 -1.28245 -0.0299732 0.0323794 -1.19257 -0.0423405 0.00103039 -1.23658 0.00390034 0.00843981 -1.14327 -0.00606807 0.0409063 -1.09614 -0.0560574 -0.0236803 -1.18824 0.0415667 0.0139725 -1.2823 0.0356416 0.0205948 -1.19243 0.0489164 -0.00376942 -1.23645 -0.00134002 0.0011768 -1.14314 0.0101076 0.028183 -1.09603 0.0631344 -0.0240519 -1.18819 -0.0414733 -0.0378729 -1.28198 -0.00606702 -0.0526966 -1.1921 -0.00696281 0.00301702 -1.23615 -0.00296404 -0.00938706 -1.14283 -0.00441112 -0.0688143 -1.09571 -0.00750664 0.047913 -1.18789 -0.000496739 -0.0568869 -1.48098 -0.111871 -0.045836 -1.52864 -0.0946201 -0.0459053 -1.503 -0.0970616 -0.0533683 -1.51448 -0.101505 -0.04502 -1.55447 -0.0846843 -0.0623808 -1.46541 -0.118312 -0.0681572 -1.4811 0.10527 -0.0587654 -1.52886 0.0870112 -0.0607216 -1.50314 0.0882729 -0.060915 -1.51491 0.0968265 -0.0502115 -1.55475 0.0808729 -0.0710671 -1.46557 0.113289 0.125424 -1.48079 0.00624794 0.104959 -1.52849 0.00728614 0.107062 -1.50279 0.00835579 0.114562 -1.51445 0.00422229 0.0955938 -1.55429 0.00300167 0.133692 -1.46529 0.00475268 -0.0568331 -1.48114 0.111735 -0.0531876 -1.51487 0.101025 -0.0622938 -1.46569 0.1177 -0.0456473 -1.52887 0.0944005 -0.0446271 -1.55467 0.0841582 -0.0457589 -1.50315 0.0970054 0.12527 -1.48105 -0.00683193 0.114316 -1.51467 -0.00464606 0.133418 -1.46587 -0.00541804 0.10489 -1.52858 -0.0076687 0.0954125 -1.55439 -0.00358048 0.107289 -1.50259 -0.00887072 -0.0682231 -1.48095 -0.105407 -0.0608332 -1.51473 -0.0969394 -0.0707408 -1.46553 -0.113157 -0.0588418 -1.5287 -0.0870944 -0.0504758 -1.55455 -0.0810524 -0.0609899 -1.50293 -0.0884975 0.00908581 -1.51739 0.0129779 0.0345047 -1.46038 0.0452608 0.0236683 -1.51482 0.0369386 0.056256 -1.45674 0.0749709 0.0652995 -1.39738 0.086772 0.0395592 -1.51058 0.0614609 -0.0162716 -1.51783 0.000804168 -0.0564236 -1.46066 0.00666351 -0.0440448 -1.51521 0.00176048 -0.092938 -1.45697 0.0108951 -0.107843 -1.3974 0.0128747 -0.0728275 -1.51083 0.0034129 0.00688453 -1.51744 -0.0144122 0.0221655 -1.46058 -0.0525555 0.020395 -1.51499 -0.0390439 0.03703 -1.45698 -0.0862592 0.0427038 -1.39764 -0.0999927 0.0337033 -1.51083 -0.065069 -0.0136735 -1.61055 -0.0203184 -0.0177261 -1.62047 -0.0104315 -0.0125931 -1.61396 -0.0100676 -0.0171064 -1.62135 -0.00012345 -0.0216076 -1.62949 -0.000120113 -0.0122179 -1.61509 -7.23896e-05 0.0242626 -1.61048 -0.00213492 0.0177805 -1.62038 -0.0104745 0.0149478 -1.61381 -0.00630168 0.00865054 -1.62124 -0.015121 0.0108915 -1.62938 -0.0189758 0.00617019 -1.61491 -0.0109503 0.00617019 -1.61491 -0.0109503 0.00865054 -1.62124 -0.015121 -0.00231101 -1.61379 -0.0162517 9.25486e-06 -1.62042 -0.0207843 0.0108915 -1.62938 -0.0189758 -0.0106991 -1.61039 -0.0222995 -0.0122179 -1.61509 -7.23896e-05 -0.0171064 -1.62135 -0.00012345 -0.0125612 -1.61399 0.00996834 -0.0176821 -1.62054 0.0102518 -0.0216076 -1.62949 -0.000120113 -0.01365 -1.6106 0.0203083 0.00647279 -1.61508 0.0105287 0.00887815 -1.62138 0.0147585 0.0152621 -1.61396 0.00586002 0.0180308 -1.62052 0.0101066 0.0110327 -1.62948 0.018629 0.0245948 -1.61057 0.00166062 -0.010377 -1.61062 0.0219135 0.000269389 -1.62056 0.0203958 -0.00200461 -1.61399 0.0158472 0.00887815 -1.62138 0.0147585 0.0110327 -1.62948 0.018629 0.00647279 -1.61508 0.0105287 -0.00468745 -0.0591773 -0.0859245 -0.00813668 -0.0313833 -0.0528977 -0.000467149 -0.0298847 -0.0567797 -0.0116282 -0.0481629 -0.0772509 -0.015617 -0.0683962 -0.0981328 -0.0140321 -0.0671176 -0.0756098 -0.0207397 -0.0517927 -0.0856935 -0.0175021 -0.0397021 -0.0515336 -0.00937919 -0.0976522 -0.107516 -0.0721549 -0.0585746 -0.0471802 -0.0572662 -0.0606093 -0.0472152 -0.0883076 -0.096866 -0.0616263 -0.0769048 -0.0679099 -0.0628064 -0.0609671 -0.0476472 -0.0488905 -0.0395595 -0.0269453 -0.0302008 -0.0639429 -0.0514657 -0.0614881 -0.031834 -0.0299646 -0.0336096 -0.0489761 -0.0295607 -0.0288783 -0.0717774 -0.0592891 0.0466264 -0.0416434 -0.0325765 0.0339247 -0.0486395 -0.0308882 0.0297015 -0.0605988 -0.0473957 0.0483171 -0.0768051 -0.0683701 0.0624028 -0.0587434 -0.0674141 0.0493848 -0.0636066 -0.0517779 0.0614179 -0.0356304 -0.0398067 0.0397554 -0.0881072 -0.0973243 0.0613144 0.10859 -1.26677 0.152064 0.0867073 -1.33459 0.117773 0.075758 -1.26147 0.104911 0.0564777 -1.3296 0.0755237 0.0652995 -1.39738 0.086772 0.044143 -1.25483 0.059537 -0.185955 -1.2668 0.0178114 -0.145352 -1.33461 0.0159788 -0.128728 -1.26151 0.0129126 -0.09368 -1.32965 0.0108801 -0.107843 -1.3974 0.0128747 -0.0736484 -1.25487 0.00817685 0.0776396 -1.26706 -0.170101 0.0588717 -1.33487 -0.134017 0.0532408 -1.26176 -0.118087 0.0374188 -1.3299 -0.0867163 0.0427038 -1.39764 -0.0999927 0.0297713 -1.25511 -0.0679968 0.0997729 -1.47868 0.151526 0.0832926 -1.51198 0.136084 0.0826098 -1.51913 0.127103 0.0681964 -1.54734 0.111925 0.0680734 -1.54438 0.117524 0.0654993 -1.5551 0.101369 -0.181329 -1.47867 0.0105396 -0.159825 -1.51182 0.00398497 -0.151812 -1.51904 0.00789988 -0.131378 -1.54706 0.00307713 -0.135812 -1.54401 7.91975e-05 -0.121181 -1.5549 0.00607072 0.0815335 -1.4789 -0.162239 0.0763622 -1.51218 -0.140212 0.0689983 -1.51934 -0.135198 0.0629507 -1.54761 -0.115007 0.0679124 -1.54451 -0.117703 0.0553439 -1.55532 -0.107557 0.0677427 -1.55394 -0.103509 0.0690445 -1.5465 -0.112349 0.0832646 -1.51956 -0.127877 0.083934 -1.51299 -0.136412 0.0679124 -1.54451 -0.117703 0.0992052 -1.47884 -0.151923 0.0559766 -1.55364 0.110088 0.0629516 -1.54627 0.115717 0.0693104 -1.51932 0.135954 0.0762897 -1.51274 0.140772 0.0680734 -1.54438 0.117524 0.0820468 -1.47868 0.161924 -0.123514 -1.55329 -0.00673668 -0.131784 -1.54606 -0.0035047 -0.152637 -1.51906 -0.00805604 -0.160271 -1.51245 -0.0044907 -0.135812 -1.54401 7.91975e-05 -0.181361 -1.4785 -0.0101581 -0.00262347 -0.0794095 -0.0206728 0.00995988 -0.0694523 0.0146305 0.0160625 -0.102185 0.0180088 0.0317064 -0.0905242 0.0583612 0.0245904 -0.0576509 0.0526467 0.0387595 -0.128896 0.0646323 0.0244621 -0.0575079 -0.0526695 0.00982656 -0.069356 -0.0146385 0.0315742 -0.0903433 -0.0583601 0.0158461 -0.101957 -0.0180261 -0.00272583 -0.079311 0.0207459 0.0386497 -0.128722 -0.0646074 1.38968e-19 5.16163e-18 4.25423e-18 -0.0185966 -0.00746646 0.0118509 -3.75023e-19 1.20506e-17 -5.83515e-18 2.39436e-18 1.45583e-18 -8.08368e-20 -7.3084e-18 7.26407e-19 -2.64285e-18 -0.0218152 -0.00925326 0.0095473 -0.0230345 -0.0165971 0.0143781 1.06554e-18 3.50605e-19 -1.64905e-19 -0.0486395 -0.0308882 0.0297015 8.07953e-18 4.24825e-18 -1.82736e-18 -1.95059e-18 -3.53321e-18 -9.41125e-18 -0.000640407 -0.00717785 -0.0220241 9.12244e-18 9.64819e-19 -7.98369e-18 4.65646e-18 1.34047e-17 -2.71542e-18 9.40957e-18 9.76136e-18 4.32166e-18 0.00281068 -0.00906292 -0.0236894 -0.000790171 -0.0165945 -0.0271099 1.45361e-18 3.13479e-18 2.40621e-18 -0.000467149 -0.0298847 -0.0567797 6.13341e-18 8.94351e-18 -4.08864e-18 1.47434e-17 8.73779e-18 7.26705e-18 0.0196253 -0.00774531 0.0101949 3.95039e-18 8.21678e-18 -2.2153e-18 9.2736e-18 1.27625e-17 -3.53857e-18 -2.74645e-17 -8.44965e-18 -1.89068e-17 0.0192792 -0.0094749 0.0142049 0.0241485 -0.0166862 0.0127705 5.84657e-18 -9.8661e-18 5.42455e-18 0.0501655 -0.0316033 0.0272973 -7.11492e-19 4.35233e-18 -1.22185e-17 0.139524 -0.42211 -0.0378095 0.152544 -0.50938 -0.0210459 0.151338 -0.512798 -0.0307916 0.0830651 -0.44187 -0.0280766 0.0858312 -0.35736 -0.0338558 0.138434 -0.421424 -0.0253645 0.0273492 -0.37957 -0.0237359 0.150116 -0.50228 -0.0112821 0.13156 -0.337695 -0.0436063 6.32282e-19 2.53374e-18 -4.77883e-19 -0.0168611 -0.0105554 -0.0244627 3.71332e-18 9.34817e-18 7.1782e-18 -1.95212e-19 -3.81906e-18 -2.37355e-18 2.30349e-18 -1.00214e-18 4.30733e-18 -0.0189372 -0.00887292 -0.0208942 -2.88634e-18 1.95125e-18 1.52896e-18 -0.0290992 -0.0179967 -0.042651 1.09786e-18 -1.86749e-18 6.80165e-19 0.165989 -1.35979 -0.00571092 0.160549 -1.37973 -0.0100873 0.150332 -1.41581 -0.0058559 0.143461 -1.4346 -0.00955858 0.156017 -1.40129 -0.0150836 0.133418 -1.46587 -0.00541804 -0.0876177 -1.35989 -0.141181 -0.0886405 -1.37981 -0.134397 -0.0798079 -1.41579 -0.127561 -0.0795332 -1.4345 -0.119761 -0.0905859 -1.40128 -0.127873 -0.0707408 -1.46553 -0.113157 -0.04502 -1.55447 -0.0846843 -0.0371251 -1.58844 -0.0663569 -0.0395466 -1.56257 -0.0789211 -0.0324968 -1.59457 -0.0591342 -0.0323329 -1.61424 -0.0501844 -0.0324742 -1.5729 -0.0699273 -0.0441817 -1.57276 -0.0634573 -0.0347512 -1.59452 -0.057969 -0.048314 -1.56252 -0.0737156 -0.0386654 -1.58848 -0.0653751 -0.0271973 -1.61416 -0.053342 -0.0504758 -1.55455 -0.0810524 0.0955938 -1.55429 0.00300167 0.0760686 -1.58837 0.000689366 0.0881078 -1.56238 0.00486423 0.0676237 -1.59448 0.00106215 0.0597522 -1.6142 -0.00316315 0.0771116 -1.57269 0.00647087 -0.0502115 -1.55475 0.0808729 -0.0384886 -1.58863 0.0650358 -0.0482157 -1.56277 0.0735597 -0.0346135 -1.59473 0.0576222 -0.0270291 -1.6143 0.0529191 -0.0441798 -1.57306 0.0632169 -0.0325076 -1.57288 0.0698569 -0.0325064 -1.59464 0.0589741 -0.0393457 -1.56265 0.0785989 -0.0369798 -1.58857 0.0660878 -0.0322608 -1.61428 0.0501215 -0.0446271 -1.55467 0.0841582 0.077161 -1.57267 -0.00667924 0.0676159 -1.59451 -0.0014234 0.0878704 -1.56241 -0.00521871 0.0760373 -1.58844 -0.00108504 0.0597813 -1.6142 0.00282892 0.0954125 -1.55439 -0.00358048 0.07621 -0.0597071 0.0386444 0.0495776 -0.0331625 0.0187075 0.0501655 -0.0316033 0.0272973 0.0727019 -0.0476701 0.0284177 0.09236 -0.0691028 0.0353103 0.071408 -0.0672712 0.0255004 0.0856529 -0.0520255 0.0245769 0.0513822 -0.0398946 0.0105551 0.096642 -0.0976969 0.0451365 0.0766169 -0.0589628 -0.0387278 0.0696068 -0.060934 -0.0259962 0.09733 -0.0970823 -0.0456543 0.0927388 -0.0687298 -0.0353844 0.0730575 -0.0483905 -0.0285315 0.0462066 -0.0276846 -0.0193543 0.0852405 -0.0525918 -0.0248128 0.0461011 -0.0317345 -0.0110111 0.0495766 -0.0299276 -0.0281016 0.100492 -1.54765 -0.000240054 0.0838691 -1.582 -0.000250005 0.0992099 -1.54938 0.00128264 0.0817085 -1.58364 0.000469162 0.0699987 -1.60925 -0.000242665 0.0955938 -1.55429 0.00300167 -0.0504758 -1.55455 -0.0810524 -0.0413228 -1.58381 -0.0702183 -0.0507951 -1.54961 -0.0851293 -0.0417437 -1.58202 -0.072434 -0.0348119 -1.60901 -0.0603713 -0.0500627 -1.54801 -0.0871377 -0.0500627 -1.54801 -0.0871377 -0.0417437 -1.58202 -0.072434 -0.0482308 -1.54966 -0.0869 -0.0401716 -1.5838 -0.0710091 -0.0348119 -1.60901 -0.0603713 -0.04502 -1.55447 -0.0846843 -0.0499548 -1.54806 0.086701 -0.0415641 -1.58214 0.0721983 -0.0505816 -1.54983 0.0848726 -0.041076 -1.58385 0.0700256 -0.034645 -1.60922 0.0602776 -0.0502115 -1.55475 0.0808729 -0.0446271 -1.55467 0.0841582 -0.0398779 -1.58392 0.070777 -0.0479542 -1.54971 0.08643 -0.0415641 -1.58214 0.0721983 -0.034645 -1.60922 0.0602776 -0.0499548 -1.54806 0.086701 0.0954125 -1.55439 -0.00358048 0.0816872 -1.58378 -0.00105325 0.0990841 -1.54935 -0.00188245 0.0838691 -1.582 -0.000250005 0.0699987 -1.60925 -0.000242665 0.100492 -1.54765 -0.000240054 -0.0710671 -1.46557 0.113289 -0.079181 -1.43463 0.119524 -0.0792964 -1.41866 0.127255 -0.0878588 -1.38312 0.133809 -0.0897514 -1.40147 0.126755 -0.0865548 -1.36636 0.140369 -0.102131 -0.422324 -0.10216 -0.0941245 -0.50964 -0.121888 -0.101983 -0.51295 -0.115982 -0.0653824 -0.440025 -0.0578006 -0.0716784 -0.355609 -0.0573732 -0.090833 -0.421792 -0.107551 -0.0338491 -0.37596 -0.0118122 -0.0845192 -0.502793 -0.124717 -0.103247 -0.337755 -0.0924069 -0.0367158 -0.42172 0.139459 -0.0585873 -0.51326 0.142944 -0.0493404 -0.513842 0.146222 -0.0164588 -0.439377 0.0848812 -0.013261 -0.355208 0.0902908 -0.0470531 -0.424115 0.132909 0.00683261 -0.375724 0.0355313 -0.0651009 -0.508854 0.136608 -0.0277322 -0.337574 0.135156 -0.328346 -1.11657 -0.0206196 -0.340096 -1.06907 -0.0119402 -0.345054 -1.03584 -0.0171776 -0.258464 -1.08805 -0.0160732 -0.243723 -1.1674 -0.0184769 -0.321868 -1.14702 -0.0141997 -0.180805 -1.13875 -0.0137612 -0.332613 -1.10224 -0.00587723 -0.308906 -1.1934 -0.0236858 0.146438 -1.1169 0.294563 0.159848 -1.06932 0.300413 0.157786 -1.03617 0.307323 0.115483 -1.08837 0.231746 0.106016 -1.16774 0.220173 0.148766 -1.14729 0.285746 0.078692 -1.13908 0.163305 0.16136 -1.10244 0.290911 0.134046 -1.19373 0.279247 0.182158 -1.11711 -0.274165 0.180533 -1.06957 -0.288805 0.187548 -1.03639 -0.290385 0.143197 -1.08857 -0.215907 0.137947 -1.16794 -0.201956 0.173351 -1.14752 -0.271809 0.102337 -1.13925 -0.149825 0.171494 -1.10275 -0.285363 0.175096 -1.19394 -0.255779 -0.216467 -0.331773 -0.00130885 -0.150502 -0.344967 0.0043056 -0.1798 -0.277125 -0.000442868 -0.117314 -0.288232 0.00567622 -0.0869694 -0.357514 0.0103439 -0.144956 -0.226489 0.000298482 0.00617019 -1.61491 -0.0109503 0.0114241 -1.60967 -0.00259218 0.0149478 -1.61381 -0.00630168 0.0198105 -1.60591 0.0011245 0.0142548 -1.60385 0.00228883 0.0242626 -1.61048 -0.00213492 0.0245948 -1.61057 0.00166062 0.0201776 -1.60606 -0.00166636 0.0152621 -1.61396 0.00586002 0.0117868 -1.60983 0.00207938 0.0146173 -1.60405 -0.00285343 0.00647279 -1.61508 0.0105287 -0.0106991 -1.61039 -0.0222995 -0.0111183 -1.60591 -0.0166442 -0.00231101 -1.61379 -0.0162517 -0.00371199 -1.60964 -0.0112416 -0.00930422 -1.60391 -0.0112182 0.00617019 -1.61491 -0.0109503 -0.0122179 -1.61509 -7.23896e-05 -0.00758658 -1.60983 -0.00880933 -0.0125931 -1.61396 -0.0100676 -0.00860642 -1.60603 -0.0179737 -0.00481615 -1.60404 -0.0136602 -0.0136735 -1.61055 -0.0203184 -0.01365 -1.6106 0.0203083 -0.00852527 -1.6061 0.01781 -0.0125612 -1.61399 0.00996834 -0.00752261 -1.60983 0.00867686 -0.00472237 -1.60413 0.0135117 -0.0122179 -1.61509 -7.23896e-05 0.00647279 -1.61508 0.0105287 -0.00336691 -1.60985 0.0107722 -0.00200461 -1.61399 0.0158472 -0.0107866 -1.60615 0.0162058 -0.00895691 -1.60418 0.0107442 -0.010377 -1.61062 0.0219135 1.29937e-18 -5.54391e-18 -2.49662e-18 6.16553e-20 0 -2.89792e-19 -3.51364e-18 9.71414e-18 2.24184e-18 -0.0169079 -0.0108559 0.0248041 -0.0187783 -0.00890175 0.0210038 -2.27567e-18 1.97503e-18 -4.01176e-18 -0.0293074 -0.0186568 0.0428705 7.93926e-20 3.41236e-18 -4.5788e-19 1.23259e-18 3.04056e-19 -1.37677e-18 7.05957e-18 -1.35068e-17 6.55165e-19 0.0279052 -0.00902217 0.00585529 -4.50644e-18 4.27603e-18 3.12172e-18 -4.5121e-18 -5.3468e-18 6.43664e-20 -8.86869e-18 3.0803e-18 5.18991e-18 0.0301813 -0.0108966 0.00227822 2.47439e-18 -3.07137e-18 -2.18657e-19 0.0521001 -0.0186489 0.0041198 -7.13936e-19 5.7311e-18 7.21672e-18 -0.232739 -0.698115 -0.0056633 -0.218716 -0.610973 -0.00469367 -0.163297 -0.698437 -0.00729763 -0.152522 -0.609936 -0.00719182 -0.203389 -0.525988 -0.00409115 -0.098842 -0.698648 -0.00883249 -0.0214286 -0.263197 -0.131882 -0.00813065 -0.259588 -0.0791852 -0.0282291 -0.337516 -0.134676 -0.0348105 -0.310924 -0.125057 -0.0282768 -0.240874 -0.119617 -0.0125329 -0.20221 -0.0925556 -0.0409569 -0.283168 -0.115442 0.00622251 -0.201235 -0.0309973 -0.0173393 -0.196893 -0.128906 0.0224696 -0.376068 0.0225068 -0.0317286 -0.366472 0.0162438 -0.0066545 -0.453772 0.0179116 -0.0655098 -0.441904 0.0124112 -0.0869694 -0.357514 0.0103439 -0.0398303 -0.534817 0.0134729 0.0397237 -0.0314585 -0.00134241 0.0134432 -0.0319108 0.00178749 0.0127957 -0.0111217 0.0069294 -0.0173245 -0.00891829 0.0100167 -0.0185081 -0.0326645 0.00514799 -0.0158024 0.0103297 0.0147488 0.0242626 -1.61048 -0.00213492 0.0295041 -1.59932 0.00463716 0.0353599 -1.60414 0.00131297 0.0407212 -1.58933 0.00733606 0.0303811 -1.58673 0.00575763 0.0475584 -1.5958 0.00404921 -0.0136735 -1.61055 -0.0203184 -0.0105756 -1.59943 -0.0281774 -0.0163179 -1.6043 -0.0315766 -0.0139453 -1.58939 -0.0392366 -0.0101254 -1.58665 -0.0294713 -0.0201453 -1.59608 -0.0434199 -0.02747 -1.59587 -0.0392226 -0.0268993 -1.58931 -0.0316892 -0.0191114 -1.60412 -0.0301235 -0.0190254 -1.5993 -0.023382 -0.0203644 -1.5867 -0.0235449 -0.0106991 -1.61039 -0.0222995 0.0483277 -1.59593 -0.00458615 0.0413452 -1.5893 -0.00787407 0.035843 -1.60426 -0.00182499 0.0300184 -1.5994 -0.00521794 0.0309494 -1.58669 -0.00631338 0.0245948 -1.61057 0.00166062 -0.0198533 -1.59597 0.0432172 -0.0136236 -1.58952 0.0389983 -0.0161721 -1.60427 0.0314654 -0.0103974 -1.59951 0.0280314 -0.00984719 -1.58695 0.0292635 -0.01365 -1.6106 0.0203083 -0.010377 -1.61062 0.0219135 -0.0187119 -1.5996 0.0229201 -0.0188699 -1.60438 0.0297021 -0.0266523 -1.58959 0.0312488 -0.0200593 -1.58704 0.0230683 -0.027317 -1.59615 0.038824 0.0139725 -1.2823 0.0356416 0.0288192 -1.34493 0.0686189 0.0405235 -1.2803 0.0923742 0.0531433 -1.34144 0.122014 0.0402713 -1.40172 0.0950737 0.0676883 -1.27666 0.150154 -0.0378729 -1.28198 -0.00606702 -0.07386 -1.34459 -0.00965452 -0.100294 -1.27997 -0.0113791 -0.132296 -1.3411 -0.0152196 -0.102534 -1.40136 -0.0129046 -0.163932 -1.27634 -0.0166893 0.024199 -1.28245 -0.0299732 0.0453259 -1.3451 -0.0593948 0.0600366 -1.28048 -0.0813701 0.0793874 -1.34165 -0.107183 0.0624568 -1.40189 -0.0826653 0.0964917 -1.27688 -0.133785 0.111689 -0.698354 0.204211 0.105435 -0.610309 0.1914 0.075616 -0.698678 0.1449 0.0702474 -0.609258 0.135339 0.0981958 -0.524452 0.177646 0.0420803 -0.698926 0.0897355 0.121372 -0.698582 -0.199127 0.113469 -0.610219 -0.18722 0.088068 -0.698938 -0.138026 0.0826855 -0.609393 -0.128595 0.105351 -0.524426 -0.174017 0.0573492 -0.699112 -0.0815386 -0.0367199 0.00330604 0.0375969 -0.0321866 -0.00289162 0.0399041 -0.0416525 -0.00515915 0.0479759 -0.0385501 -0.00838557 0.0530749 -0.0333848 -0.00408426 0.0427516 -0.0252175 0.00384255 0.0267087 -0.0354199 -0.0153259 0.0589002 -0.0232355 -0.000244378 0.0323579 -0.0288371 0.00940644 0.0223514 0.0244621 -0.0575079 -0.0526695 0.0315742 -0.0903433 -0.0583601 0.0441312 -0.0565811 -0.0964786 0.0523297 -0.0915287 -0.104509 0.0386497 -0.128722 -0.0646074 0.0664125 -0.054925 -0.144331 0.0387595 -0.128896 0.0646323 0.0317064 -0.0905242 0.0583612 0.0524834 -0.0916728 0.104462 0.0443185 -0.0567191 0.0963625 0.0245904 -0.0576509 0.0526467 0.0666256 -0.0550572 0.14421 -0.232739 -0.698115 -0.0056633 -0.298545 -0.78367 -0.00679821 -0.298746 -0.697584 -0.00393092 -0.374433 -0.782235 -0.00582319 -0.376229 -0.783107 -0.00460767 -0.379275 -0.698846 -0.00159309 -0.368141 -0.868127 -0.00987291 -0.379941 -0.699775 -0.00118637 -0.377316 -0.697183 -0.00194995 -0.298746 -0.697584 -0.00393092 -0.309378 -0.608759 -0.00114134 -0.232739 -0.698115 -0.0056633 -0.385928 -0.609514 0.00171279 -0.379275 -0.698846 -0.00159309 -0.388407 -0.607022 0.00132934 -0.379941 -0.699775 -0.00118637 -0.384751 -0.524929 0.00471401 -0.377316 -0.697183 -0.00194995 0.111689 -0.698354 0.204211 0.143584 -0.78394 0.261837 0.146188 -0.697822 0.260559 0.182347 -0.782504 0.327105 0.184302 -0.783322 0.328053 0.188465 -0.69904 0.32918 0.175681 -0.868427 0.323691 0.189159 -0.699917 0.329542 0.187166 -0.697422 0.327656 0.146188 -0.697822 0.260559 0.153944 -0.608985 0.268384 0.111689 -0.698354 0.204211 0.194674 -0.609726 0.333281 0.188465 -0.69904 0.32918 0.195592 -0.607197 0.335626 0.189159 -0.699917 0.329542 0.196724 -0.525108 0.330763 0.187166 -0.697422 0.327656 0.121372 -0.698582 -0.199127 0.155017 -0.784063 -0.255432 0.15294 -0.697985 -0.257037 0.192432 -0.782651 -0.321693 0.192451 -0.783374 -0.323964 0.191231 -0.699228 -0.327959 0.192751 -0.86842 -0.314416 0.191316 -0.700042 -0.328724 0.190542 -0.697564 -0.32609 0.15294 -0.697985 -0.257037 0.155859 -0.60901 -0.267648 0.121372 -0.698582 -0.199127 0.191708 -0.609801 -0.335376 0.191231 -0.699228 -0.327959 0.193293 -0.607244 -0.33738 0.191316 -0.700042 -0.328724 0.188403 -0.525138 -0.335917 0.190542 -0.697564 -0.32609 -0.0378729 -1.28198 -0.00606702 0.00301702 -1.23615 -0.00296404 0.000362111 -1.33297 -0.00232907 0.041513 -1.28875 0.000719408 0.047913 -1.18789 -0.000496739 0.0337874 -1.38007 0.00123488 0.0139725 -1.2823 0.0356416 -0.00376942 -1.23645 -0.00134002 -0.00189612 -1.33331 0.000667845 -0.0198026 -1.28906 -0.0365165 -0.0240519 -1.18819 -0.0414733 -0.0154877 -1.38042 -0.0300623 0.024199 -1.28245 -0.0299732 0.00103039 -1.23658 0.00390034 0.00182056 -1.33346 0.00126879 -0.0214443 -1.28921 0.0353855 -0.0236803 -1.18824 0.0415667 -0.0179536 -1.38048 0.0283924 0.0476234 -1.58274 -0.0633411 0.0363839 -1.59256 -0.0617414 0.0600215 -1.56681 -0.0859315 0.0446682 -1.58443 -0.0757856 0.0251432 -1.59957 -0.0571023 0.0677427 -1.55394 -0.103509 0.0313416 -1.58243 0.0733693 0.0354219 -1.59266 0.0620165 0.0445842 -1.56636 0.0949622 0.0436389 -1.58469 0.0762995 0.0367778 -1.5992 0.0501514 0.0559766 -1.55364 0.110088 -0.0786176 -1.58247 -0.00973964 -0.0712737 -1.59263 -0.000553153 -0.104726 -1.56614 -0.00890861 -0.0879968 -1.58502 -0.000319625 -0.0617154 -1.59903 0.00651918 -0.123514 -1.55329 -0.00673668 0.0553439 -1.55532 -0.107557 0.0437607 -1.58472 -0.0771748 0.044602 -1.56576 -0.0937566 0.035016 -1.59283 -0.0620098 0.0373239 -1.59899 -0.0519921 0.0306998 -1.58263 -0.0715319 0.0654993 -1.5551 0.101369 0.0449262 -1.58461 0.0762586 0.0589052 -1.56559 0.0853716 0.036319 -1.59253 0.061386 0.0263812 -1.59895 0.0580976 0.0464315 -1.58238 0.0621862 -0.121181 -1.5549 0.00607072 -0.0885241 -1.58476 0.000392054 -0.104109 -1.56548 0.00844667 -0.0715167 -1.59246 0.000660072 -0.0626865 -1.59899 -0.00642759 -0.0781692 -1.58207 0.00938074 -0.0171449 -0.0347134 -0.00481584 0.014056 -0.0327675 -0.00169606 -0.016763 -0.00972251 -0.00993896 0.0126738 -0.0109843 -0.00705606 0.0397077 -0.0313149 0.00123051 -0.015893 0.0103589 -0.0149365 0.0369433 -0.128832 -0.0656839 0.0339804 -0.0913756 -0.0552137 0.0646437 -0.0915615 -0.0975445 0.0606371 -0.0575461 -0.0851218 0.0316188 -0.0592847 -0.0451076 0.0920715 -0.0549024 -0.129662 0.0315533 -0.0593154 0.0447854 0.0338948 -0.0914598 0.0549144 0.0606131 -0.0576039 0.0848257 0.0645516 -0.0916932 0.0972672 0.0368176 -0.128973 0.0654443 0.092014 -0.0549846 0.129398 0.00937398 -1.56963 0.0151002 0.0141931 -1.54047 0.0237525 0.0161952 -1.56015 0.0281078 0.00590629 -1.55128 0.00813066 0.00908581 -1.51739 0.0129779 0.00469368 -1.57775 0.00561555 0.00869207 -1.56996 -0.0158751 0.0138178 -1.54078 -0.0242755 0.0165812 -1.56057 -0.0280887 0.00438806 -1.5516 -0.00935556 0.00688453 -1.51744 -0.0144122 0.00281809 -1.57792 -0.00712172 0.00937241 -1.57008 -0.015205 0.00582097 -1.55175 -0.00838231 0.00463307 -1.57817 -0.00578001 0.0143248 -1.54088 -0.0240085 0.00860711 -1.51765 -0.0130279 0.0164044 -1.5605 -0.0281916 0.00862126 -1.56985 0.0156865 0.00454124 -1.55127 0.00921359 0.00286282 -1.57789 0.00687112 0.0137047 -1.5405 0.0244119 0.00705518 -1.51727 0.0138809 0.0162072 -1.56023 0.0282473 -0.0969768 -0.143019 0.0709814 -0.0809794 -0.119197 0.0696258 -0.102224 -0.196398 0.0793039 -0.0853445 -0.170119 0.0768967 -0.0780258 -0.119004 0.0666145 -0.0800823 -0.0886658 0.070913 -0.0700649 -0.143242 0.0749947 -0.063064 -0.0727459 0.0648133 -0.0881072 -0.0973243 0.0613144 0.124562 -0.262975 0.047218 0.071456 -0.267501 0.0323833 0.130673 -0.337268 0.0428268 0.125945 -0.310236 0.0320035 0.11736 -0.240131 0.0347256 0.0858729 -0.209327 0.0353322 0.121521 -0.281791 0.0213734 0.0200185 -0.214991 0.0209967 0.119775 -0.196248 0.048669 -0.377395 -0.697224 0.00152183 -0.379331 -0.698896 0.00118411 -0.37457 -0.782106 0.00531234 -0.297917 -0.697617 0.00345966 -0.29771 -0.783602 0.00627602 -0.376489 -0.782816 0.00405815 -0.368271 -0.867783 0.0091762 -0.379869 -0.699759 0.000851586 -0.23111 -0.698191 0.00493915 -0.297917 -0.697617 0.00345966 -0.385977 -0.609646 -0.00206199 -0.377395 -0.697224 0.00152183 -0.379331 -0.698896 0.00118411 -0.388291 -0.606964 -0.00165288 -0.308605 -0.608892 0.000574506 -0.379869 -0.699759 0.000851586 -0.3848 -0.524912 -0.00507509 -0.23111 -0.698191 0.00493915 0.187514 -0.697359 -0.327948 0.188678 -0.699035 -0.329323 0.182868 -0.782207 -0.327345 0.146145 -0.69777 -0.260234 0.143553 -0.783686 -0.261413 0.184796 -0.782906 -0.328235 0.176494 -0.867997 -0.323796 0.189014 -0.699887 -0.329333 0.111429 -0.698372 -0.203479 0.146145 -0.69777 -0.260234 0.194803 -0.609866 -0.33359 0.187514 -0.697359 -0.327948 0.188678 -0.699035 -0.329323 0.195483 -0.607265 -0.335785 0.153979 -0.609043 -0.268063 0.189014 -0.699887 -0.329333 0.196625 -0.525308 -0.330941 0.111429 -0.698372 -0.203479 0.190251 -0.697187 0.325982 0.190922 -0.6989 0.327811 0.192113 -0.782065 0.321648 0.152227 -0.697593 0.256168 0.154538 -0.783563 0.254586 0.19198 -0.782798 0.323924 0.192286 -0.867738 0.314285 0.190899 -0.699793 0.328428 0.120125 -0.698199 0.197544 0.152227 -0.697593 0.256168 0.191423 -0.609605 0.335208 0.190251 -0.697187 0.325982 0.190922 -0.6989 0.327811 0.192921 -0.606984 0.336988 0.155089 -0.60886 0.266872 0.190899 -0.699793 0.328428 0.188192 -0.524885 0.335703 0.120125 -0.698199 0.197544 -0.0176929 -1.56949 9.36285e-05 -0.0282012 -1.54041 0.000510523 -0.0328924 -1.55977 0.000294735 -0.01002 -1.55112 0.000340309 -0.0162716 -1.51783 0.000804168 -0.0066305 -1.5778 0.00054065 -0.0178725 -1.56984 -0.00064433 -0.0102603 -1.55145 -0.00100475 -0.00746548 -1.57767 -0.00137752 -0.0281986 -1.54063 -0.000297596 -0.015588 -1.51688 -0.00118146 -0.0325337 -1.56049 6.57231e-05 -0.0365878 0.00318406 -0.0376887 -0.0276024 0.00234018 -0.031034 -0.0286301 0.00924407 -0.0224986 -0.0331656 -0.00426922 -0.0427484 -0.038436 -0.00841648 -0.0532064 -0.0337882 -0.00510239 -0.0428021 -0.0353187 -0.0154749 -0.0590814 -0.0272857 -0.00397935 -0.0390509 -0.041599 -0.00520852 -0.048081 -0.271884 -0.17944 0.0126227 -0.263605 -0.167977 0.00800641 -0.235488 -0.130443 0.0134219 -0.204311 -0.180731 0.00736827 -0.236448 -0.235883 0.00664246 -0.297309 -0.222285 0.00744128 -0.171878 -0.234754 0.00126141 -0.288263 -0.206651 0.00347974 -0.305143 -0.235815 0.0116856 -0.0140878 0.00341736 0.0503977 -0.0128125 0.00252465 0.0393416 -0.00486081 0.00943233 0.0359111 -0.0202178 -0.00420686 0.0500418 -0.0266783 -0.008283 0.0598335 -0.0199603 -0.00487695 0.0506168 -0.0333323 -0.0155779 0.060098 -0.0199387 -0.00386028 0.0430998 -0.0206394 -0.00490923 0.059982 -0.0141254 0.00344928 -0.0506268 -0.018455 -0.00272407 -0.0479254 -0.0207111 -0.00503868 -0.0600774 -0.0267217 -0.00836467 -0.0599837 -0.0203055 -0.00411116 -0.0503296 -0.0104589 0.0039535 -0.0353587 -0.0333285 -0.0155542 -0.0603166 -0.01632 -0.000190185 -0.0365132 -0.00483914 0.00956456 -0.0362411 0.158102 -0.299046 0.294657 0.16811 -0.33366 0.303386 0.171362 -0.368817 0.314466 0.13499 -0.347203 0.243468 0.122316 -0.279324 0.223709 0.153986 -0.267649 0.280812 0.101948 -0.324994 0.177249 0.163829 -0.297967 0.290391 0.142458 -0.235799 0.270011 0.176507 -0.299223 -0.28439 0.178924 -0.334058 -0.297648 0.18694 -0.369146 -0.305743 0.14369 -0.347483 -0.238674 0.132973 -0.279446 -0.217804 0.166468 -0.267994 -0.274124 0.102852 -0.325194 -0.176846 0.169691 -0.298359 -0.287579 0.163082 -0.235791 -0.25852 0.194962 -1.18596 -0.00895618 0.200729 -1.14416 -0.00479701 0.202121 -1.09885 -0.00544711 0.127572 -1.1598 -0.00414706 0.122778 -1.24406 -0.00662473 0.191067 -1.22745 -0.00688626 0.0621001 -1.2181 -0.00166295 0.196317 -1.18916 -0.00281007 0.184295 -1.26759 -0.01211 -0.104861 -1.18592 -0.164668 -0.104139 -1.14418 -0.171732 -0.105371 -1.0988 -0.172608 -0.0670184 -1.15976 -0.108669 -0.0668 -1.24403 -0.103309 -0.101147 -1.22748 -0.162323 -0.0321809 -1.21805 -0.053192 -0.100215 -1.18924 -0.168879 -0.102281 -1.26757 -0.15389 -0.0898849 -1.18617 0.173089 -0.0968984 -1.13131 0.176818 -0.0965052 -1.09908 0.177532 -0.0603474 -1.16003 0.112396 -0.0558211 -1.24424 0.109502 -0.0903105 -1.21553 0.170071 -0.0297163 -1.2183 0.0544668 -0.0969307 -1.16378 0.1737 -0.0818772 -1.26774 0.165433 0.139043 -0.421799 0.0372735 0.136612 -0.408717 0.0246211 0.130673 -0.337268 0.0428268 0.0825028 -0.35493 0.0329733 0.0787605 -0.439088 0.0274261 0.150971 -0.497277 0.0200926 0.0224696 -0.376068 0.0225068 0.146476 -0.475686 0.0103813 0.151417 -0.514019 0.0300228 -0.00483654 -0.0592647 0.0856283 -0.0130225 -0.0626602 0.0734679 -0.00914869 -0.0978258 0.106821 -0.015957 -0.0680295 0.0977221 -0.0122158 -0.0482706 0.0774888 -0.00692733 -0.0285336 0.0502183 -0.0216033 -0.0514727 0.0855999 -0.0149455 -0.0338007 0.0466119 -0.000464858 -0.029885 0.0569314 -0.216467 -0.331773 -0.00130885 -0.1798 -0.277125 -0.000442868 -0.261178 -0.28247 -0.00661489 -0.222014 -0.232018 -0.00610089 -0.144956 -0.226489 0.000298482 -0.30522 -0.235785 -0.0119813 0.147211 -0.179522 0.228885 0.135559 -0.159306 0.218548 0.129587 -0.130654 0.197034 0.10786 -0.179712 0.171576 0.123274 -0.234822 0.199619 0.152245 -0.211965 0.248496 0.0853768 -0.232514 0.144982 0.140679 -0.18678 0.237034 0.163042 -0.235904 0.258223 0.125071 -0.179435 -0.242037 0.124556 -0.167719 -0.232584 0.106191 -0.130385 -0.210877 0.0949837 -0.179724 -0.179161 0.111646 -0.23482 -0.206587 0.141944 -0.222081 -0.261514 0.0832638 -0.232511 -0.146422 0.140576 -0.206517 -0.251881 0.142532 -0.235879 -0.270382 0.101948 -0.324994 0.177249 0.0866148 -0.27232 0.149325 0.122316 -0.279324 0.223709 0.105308 -0.230577 0.193722 0.0718284 -0.223588 0.122709 0.142458 -0.235799 0.270011 0.050849 0.00316546 0.0129321 0.0513382 -0.00434386 0.00702087 0.0624293 -0.00521173 0.0120895 0.0653004 -0.00854812 0.00671447 0.053406 -0.0045289 0.00736494 0.0372451 0.00267696 0.00744327 0.0688719 -0.016103 0.000933594 0.0426733 -0.00232849 0.00230233 0.0337203 0.00917329 0.013618 0.0506813 0.00329587 -0.0129084 0.0380654 0.00393357 -0.00938664 0.0335846 0.00930665 -0.0137 0.0532064 -0.00442672 -0.00734808 0.0650447 -0.00846319 -0.00662028 0.0524458 -0.00301533 -0.00876027 0.0685378 -0.0160581 -0.000934873 0.0429131 -0.000814923 -0.00571426 0.06225 -0.00508779 -0.0119905 0.00620117 -1.60419 0.000262648 0.00201233 -1.60231 -0.000832395 0.00979091 -1.59128 5.45112e-05 0.00202365 -1.58801 -0.0012711 -0.00291165 -1.59934 -0.00132326 0.0137582 -1.57175 -0.000808025 -0.00256991 -1.59955 0.000937876 0.0021647 -1.60244 0.000485203 0.00231527 -1.58814 0.00086667 0.00971198 -1.59129 -0.000277609 0.00645627 -1.60433 -0.000579946 0.0138445 -1.57163 0.000469264 0.000555489 -1.59959 -0.00304016 -0.00147205 -1.60261 0.00147819 -0.0017801 -1.5883 0.00135598 -0.0045321 -1.59155 0.00853687 -0.00274805 -1.60457 0.00525381 -0.00713821 -1.57211 0.0116443 0.00252053 -1.59943 0.00180452 -0.000360898 -1.60239 -0.00221378 -0.000111938 -1.58806 -0.00251148 -0.00493771 -1.59127 -0.00847027 -0.00308517 -1.60434 -0.0053232 -0.00630926 -1.5718 -0.0122777 -0.00273759 -1.60461 0.00493274 -0.000102103 -1.60261 0.00191928 -0.0044877 -1.59159 0.00807246 0.000123088 -1.58834 0.00227946 0.00263271 -1.59969 -0.00204775 -0.00576661 -1.5721 0.011861 -0.0027324 -1.60444 -0.00531286 -0.00155934 -1.60251 -0.00123687 -0.0046809 -1.59124 -0.00856828 -0.00191939 -1.58805 -0.00125151 0.00050444 -1.59959 0.0031848 -0.0072962 -1.57127 -0.0118882 0.0955938 -1.55429 0.00300167 0.114562 -1.51445 0.00422229 0.0992099 -1.54938 0.00128264 0.117673 -1.5096 0.00224975 0.133692 -1.46529 0.00475268 0.100492 -1.54765 -0.000240054 -0.04502 -1.55447 -0.0846843 -0.0533683 -1.51448 -0.101505 -0.0482308 -1.54966 -0.0869 -0.056668 -1.50981 -0.103226 -0.0623808 -1.46541 -0.118312 -0.0500627 -1.54801 -0.0871377 -0.0500627 -1.54801 -0.0871377 -0.0607717 -1.50991 -0.100795 -0.0507951 -1.54961 -0.0851293 -0.0608332 -1.51473 -0.0969394 -0.0707408 -1.46553 -0.113157 -0.0504758 -1.55455 -0.0810524 0.100492 -1.54765 -0.000240054 0.117679 -1.50979 -0.00268533 0.0990841 -1.54935 -0.00188245 0.114316 -1.51467 -0.00464606 0.133418 -1.46587 -0.00541804 0.0954125 -1.55439 -0.00358048 -0.0502115 -1.55475 0.0808729 -0.060915 -1.51491 0.0968265 -0.0505816 -1.54983 0.0848726 -0.0607553 -1.50998 0.100483 -0.0710671 -1.46557 0.113289 -0.0499548 -1.54806 0.086701 -0.0499548 -1.54806 0.086701 -0.0565389 -1.51007 0.102869 -0.0479542 -1.54971 0.08643 -0.0531876 -1.51487 0.101025 -0.0622938 -1.46569 0.1177 -0.0446271 -1.55467 0.0841582 -0.0969074 -0.709264 -0.16722 -0.103129 -0.802555 -0.174964 -0.100519 -0.708823 -0.166059 -0.105093 -0.802214 -0.173936 -0.105521 -0.895143 -0.179765 -0.103995 -0.708048 -0.16438 0.193224 -0.70918 -0.000836403 0.203008 -0.802387 -0.00234971 0.193856 -0.708737 -0.00456969 0.203032 -0.801983 -0.00462398 0.208456 -0.89494 -0.00205003 0.194074 -0.707847 -0.00845952 -0.0972835 -0.7089 0.168759 -0.100128 -0.802529 0.17714 -0.0938019 -0.70884 0.170388 -0.0973825 -0.802873 0.177714 -0.102255 -0.895453 0.181235 -0.0896806 -0.708577 0.171644 -0.0104775 -1.62429 -0.0356053 -0.00839429 -1.6365 -0.0387227 -0.0196398 -1.61931 -0.0452003 -0.0179522 -1.63399 -0.0475737 -0.0132611 -1.65125 -0.0453131 -0.0271973 -1.61416 -0.053342 -0.0323329 -1.61424 -0.0501844 -0.0319506 -1.63392 -0.0394996 -0.0290375 -1.6194 -0.0396982 -0.0291064 -1.63652 -0.0267128 -0.0323728 -1.65129 -0.0342607 -0.0254243 -1.62434 -0.0271678 -0.0270291 -1.6143 0.0529191 -0.0179253 -1.63397 0.047223 -0.0194451 -1.61952 0.0447564 -0.00820442 -1.63649 0.0383189 -0.0131658 -1.65121 0.0449784 -0.01022 -1.62436 0.035185 0.0597522 -1.6142 -0.00316315 0.0501797 -1.63389 -0.00814179 0.0489597 -1.61943 -0.00561589 0.0377091 -1.63647 -0.0121187 0.0458331 -1.65113 -0.011166 0.0362691 -1.6244 -0.00881499 -0.0252678 -1.62442 0.0268461 -0.0289794 -1.63653 0.0265507 -0.028984 -1.61943 0.0395342 -0.031849 -1.63401 0.0392045 -0.0322475 -1.65122 0.0340015 -0.0322608 -1.61428 0.0501215 0.036027 -1.62441 0.00845989 0.0376833 -1.6365 0.0116933 0.0489086 -1.61933 0.00532313 0.0500915 -1.63394 0.00787093 0.0457805 -1.65114 0.0107642 0.0597813 -1.6142 0.00282892 0.00167406 -1.60349 -0.00578162 -0.000144121 -1.60959 -0.00111275 0.000555489 -1.59959 -0.00304016 0.000390973 -1.61067 -0.00171692 -0.000251865 -1.61238 0.000155168 0.00186068 -1.60576 -0.00720484 0.0042743 -1.60334 0.0041161 0.00116855 -1.60936 0.000285083 0.00252053 -1.59943 0.00180452 0.00133854 -1.61049 0.00100073 0.000109925 -1.61219 -0.000548117 0.00527423 -1.60566 0.0049863 0.00165859 -1.60354 0.00588488 0.000481364 -1.61072 0.00187173 0.00198536 -1.60594 0.00723905 -0.000146473 -1.60954 0.00137908 -0.000251865 -1.61238 0.000155168 0.00050444 -1.59959 0.0031848 0.00441913 -1.60363 -0.00435764 0.00146505 -1.61068 -0.00121708 0.00538046 -1.60596 -0.00519167 0.00133495 -1.60956 -0.000553593 0.0003274 -1.61235 0.000327595 0.00263271 -1.59969 -0.00204775 -0.0056191 -1.6035 0.00137494 -0.000858757 -1.60948 0.000652752 -0.00256991 -1.59955 0.000937876 -0.00156765 -1.61071 0.000476964 0.0003274 -1.61235 0.000327595 -0.00703952 -1.60594 0.00182487 -0.00579582 -1.60331 -0.00174097 -0.00176382 -1.61053 -0.000817734 -0.00719436 -1.6057 -0.00222847 -0.000927994 -1.60938 -0.00110238 0.000109925 -1.61219 -0.000548117 -0.00291165 -1.59934 -0.00132326 -0.180805 -1.13875 -0.0137612 -0.105514 -1.21269 -0.0107022 -0.173226 -1.20957 -0.0154099 -0.100294 -1.27997 -0.0113791 -0.0378729 -1.28198 -0.00606702 -0.163932 -1.27634 -0.0166893 0.078692 -1.13908 0.163305 0.0437273 -1.21303 0.0965479 0.0734594 -1.2099 0.157565 0.0405235 -1.2803 0.0923742 0.0139725 -1.2823 0.0356416 0.0676883 -1.27666 0.150154 0.102337 -1.13925 -0.149825 0.0620384 -1.21319 -0.0861988 0.100009 -1.2101 -0.142456 0.0600366 -1.28048 -0.0813701 0.024199 -1.28245 -0.0299732 0.0964917 -1.27688 -0.133785 -0.0201453 -1.59608 -0.0434199 -0.0186674 -1.57622 -0.0529919 -0.0258237 -1.5849 -0.0568809 -0.0264115 -1.55989 -0.0690366 -0.0217776 -1.55429 -0.051803 -0.0324742 -1.5729 -0.0699273 -0.0441817 -1.57276 -0.0634573 -0.0464359 -1.55979 -0.0573722 -0.0362527 -1.58463 -0.0509684 -0.0365022 -1.57603 -0.0426187 -0.0338887 -1.55441 -0.0446691 -0.02747 -1.59587 -0.0392226 0.0475584 -1.5958 0.00404921 0.0550111 -1.57609 0.0101721 0.0621831 -1.58467 0.00579937 0.0728756 -1.55971 0.0114279 0.0555015 -1.55439 0.00687915 0.0771116 -1.57269 0.00647087 -0.027317 -1.59615 0.038824 -0.0362363 -1.57638 0.0421976 -0.0361449 -1.58504 0.0505993 -0.0462749 -1.56005 0.0570574 -0.0335784 -1.55471 0.0442677 -0.0441798 -1.57306 0.0632169 -0.0325076 -1.57288 0.0698569 -0.026079 -1.55998 0.0687694 -0.0256519 -1.58474 0.0567266 -0.0182619 -1.57624 0.0527732 -0.0213311 -1.55468 0.0515525 -0.0198533 -1.59597 0.0432172 0.077161 -1.57267 -0.00667924 0.0735089 -1.55944 -0.0118108 0.0626639 -1.58453 -0.00617017 0.0558411 -1.57592 -0.0106461 0.056389 -1.55392 -0.00731974 0.0483277 -1.59593 -0.00458615 0.102852 -0.325194 -0.176846 0.0999908 -0.405837 -0.176538 0.0692462 -0.337278 -0.12902 0.0657989 -0.420025 -0.126615 0.0964437 -0.493613 -0.173938 0.0363761 -0.348852 -0.0829537 0.101948 -0.324994 0.177249 0.103164 -0.405521 0.174533 0.0773544 -0.337094 0.12431 0.0771344 -0.419799 0.120022 0.10285 -0.493124 0.169992 0.0540095 -0.348639 0.0729358 0.0964917 -1.27688 -0.133785 0.0793874 -1.34165 -0.107183 0.125784 -1.30688 -0.174129 0.105941 -1.36901 -0.142711 0.0624568 -1.40189 -0.0826653 0.155096 -1.33333 -0.213074 0.0676883 -1.27666 0.150154 0.0531433 -1.34144 0.122014 0.0879666 -1.30666 0.195693 0.07062 -1.36878 0.162798 0.0402713 -1.40172 0.0950737 0.107027 -1.33309 0.240552 -0.163932 -1.27634 -0.0166893 -0.132296 -1.3411 -0.0152196 -0.213526 -1.30634 -0.0218465 -0.176378 -1.36846 -0.0204356 -0.102534 -1.40136 -0.0129046 -0.261933 -1.33279 -0.0277226 -0.235958 -1.38268 -0.0130848 -0.258058 -1.3348 -0.00621484 -0.262978 -1.32326 -0.0135556 -0.283128 -1.27157 -0.00589645 -0.27767 -1.28564 0.000906636 -0.287914 -1.25867 -0.0128576 0.106676 -1.38288 0.210644 0.123764 -1.335 0.226452 0.119827 -1.32349 0.234352 0.136601 -1.27178 0.248047 0.139817 -1.28586 0.239977 0.132933 -1.25892 0.255647 0.129399 -1.38315 -0.197791 0.134482 -1.3352 -0.220451 0.143324 -1.32371 -0.221005 0.146762 -1.272 -0.242378 0.138149 -1.28609 -0.24113 0.155196 -1.25912 -0.243009 -0.197275 -0.0889087 -0.0144496 -0.124145 -0.0892031 -0.00819463 -0.158204 -0.0549317 -0.014967 -0.181059 -0.0751871 -0.0105253 -0.219608 -0.112892 -0.0101327 -0.159261 -0.128132 -0.00773175 -0.202167 -0.0959886 -0.00661788 -0.0898335 -0.124382 -0.00120454 -0.235593 -0.130348 -0.0137759 0.189716 -0.705743 -0.015061 0.105729 -0.70273 -0.013686 0.167206 -0.609968 -0.0227707 0.193225 -0.707009 -0.0116828 0.168107 -0.607822 -0.0180109 0.0962877 -0.605966 -0.0195989 0.151338 -0.512798 -0.0307916 0.0379969 -0.700697 -0.0120904 0.194074 -0.707847 -0.00845952 0.193225 -0.707009 -0.0116828 0.199535 -0.80776 -0.0086908 0.189716 -0.705743 -0.015061 0.105729 -0.70273 -0.013686 0.120058 -0.805874 -0.0088342 0.202159 -0.80788 -0.00678556 0.0379969 -0.700697 -0.0120904 0.204902 -0.908239 -0.00353877 0.194074 -0.707847 -0.00845952 -0.082262 -0.706089 0.17182 -0.0412948 -0.703152 0.0984808 -0.0647582 -0.610307 0.155879 -0.0866905 -0.707382 0.172904 -0.06942 -0.607996 0.154284 -0.0322428 -0.606353 0.0930861 -0.0493404 -0.513842 0.146222 -0.00849127 -0.701125 0.039173 -0.0896806 -0.708577 0.171644 -0.0866905 -0.707382 0.172904 -0.0920438 -0.808161 0.177007 -0.082262 -0.706089 0.17182 -0.0412948 -0.703152 0.0984808 -0.0521731 -0.806296 0.108252 -0.0950535 -0.808371 0.17829 -0.00849127 -0.701125 0.039173 -0.0991939 -0.908537 0.178965 -0.0896806 -0.708577 0.171644 -0.107438 -0.706104 -0.157133 -0.0643018 -0.703086 -0.0849921 -0.102907 -0.610217 -0.133769 -0.106307 -0.707271 -0.161915 -0.0993246 -0.608117 -0.13713 -0.0647131 -0.606166 -0.0738018 -0.101983 -0.51295 -0.115982 -0.0290882 -0.700986 -0.0270321 -0.103995 -0.708048 -0.16438 -0.106307 -0.707271 -0.161915 -0.106802 -0.808155 -0.168764 -0.107438 -0.706104 -0.157133 -0.0643018 -0.703086 -0.0849921 -0.0672621 -0.806255 -0.0998166 -0.106482 -0.808184 -0.172045 -0.0290882 -0.700986 -0.0270321 -0.105022 -0.908591 -0.175964 -0.103995 -0.708048 -0.16438 0.189899 -0.70566 0.0147305 0.193144 -0.707236 0.0115063 0.167512 -0.610006 0.021915 0.106783 -0.702775 0.0134095 0.0976367 -0.606047 0.0185673 0.168416 -0.60817 0.0169836 0.151417 -0.514019 0.0300228 0.19365 -0.709094 0.00834837 0.0394471 -0.700658 0.0121411 0.106783 -0.702775 0.0134095 0.199149 -0.807687 0.00849179 0.189899 -0.70566 0.0147305 0.193144 -0.707236 0.0115063 0.201682 -0.808066 0.0065245 0.120691 -0.805864 0.00846569 0.19365 -0.709094 0.00834837 0.204392 -0.908145 0.00296385 0.0394471 -0.700658 0.0121411 -0.107421 -0.706365 0.157407 -0.106225 -0.707515 0.162136 -0.102734 -0.610405 0.134068 -0.0649202 -0.703405 0.0857365 -0.0650842 -0.606321 0.074672 -0.0990606 -0.607821 0.137467 -0.101857 -0.513389 0.115757 -0.103779 -0.708342 0.164508 -0.0301471 -0.701312 0.0278957 -0.0649202 -0.703405 0.0857365 -0.106797 -0.808325 0.168577 -0.107421 -0.706365 0.157407 -0.106225 -0.707515 0.162136 -0.106522 -0.808109 0.171708 -0.0675623 -0.806533 0.100584 -0.103779 -0.708342 0.164508 -0.105095 -0.908432 0.175187 -0.0301471 -0.701312 0.0278957 -0.0816006 -0.70545 -0.17215 -0.0859798 -0.707122 -0.173304 -0.0642143 -0.609839 -0.156392 -0.0412567 -0.702587 -0.0994543 -0.0322216 -0.605898 -0.0942015 -0.0688238 -0.608003 -0.154641 -0.0492495 -0.514058 -0.146612 -0.0888351 -0.709059 -0.171992 -0.00875975 -0.70054 -0.0404591 -0.0412567 -0.702587 -0.0994543 -0.09168 -0.807511 -0.177021 -0.0816006 -0.70545 -0.17215 -0.0859798 -0.707122 -0.173304 -0.0946142 -0.807967 -0.178203 -0.0525374 -0.805699 -0.108998 -0.0888351 -0.709059 -0.171992 -0.0991554 -0.908022 -0.178795 -0.00875975 -0.70054 -0.0404591 0.00908581 -1.51739 0.0129779 -0.00190929 -1.54752 -0.0049234 -0.00592268 -1.51658 -0.0110017 -0.0127146 -1.54576 -0.0217718 -0.00630926 -1.5718 -0.0122777 -0.0220536 -1.51424 -0.0361846 0.00688453 -1.51744 -0.0144122 -0.00309649 -1.54783 0.00406964 -0.00630161 -1.51676 0.0105567 -0.0121723 -1.54604 0.0219019 -0.00713821 -1.57211 0.0116443 -0.0199866 -1.51449 0.0371314 -0.0162716 -1.51783 0.000804168 0.00459429 -1.54701 0.000558859 0.012482 -1.5163 -0.000126746 0.0258665 -1.54482 -0.000458945 0.0138445 -1.57163 0.000469264 0.0436149 -1.51303 -0.00119034 -0.0202613 -1.51422 -0.0367435 -0.0123321 -1.54523 -0.022137 -0.00647325 -1.51647 -0.010636 -0.00281213 -1.54699 -0.00390291 -0.0072962 -1.57127 -0.0118882 0.00705518 -1.51727 0.0138809 -0.0213488 -1.51429 0.0358939 -0.0121686 -1.54596 0.0212354 -0.00571294 -1.51661 0.010869 -0.00167362 -1.54785 0.00445892 -0.00576661 -1.5721 0.011861 0.00860711 -1.51765 -0.0130279 0.0421656 -1.51388 0.000397838 0.0250359 -1.5455 -6.22529e-05 0.0124754 -1.51607 -0.000630543 0.00492546 -1.54743 -0.000989626 0.0137582 -1.57175 -0.000808025 -0.015588 -1.51688 -0.00118146 -0.0245249 -0.0146775 0.0644746 -0.0306989 -0.0144172 0.0643431 -0.0255637 -0.0247783 0.0635778 -0.0259153 -0.0227966 0.0592756 -0.0240747 -0.0130154 0.0578161 -0.0266783 -0.008283 0.0598335 -0.0266262 -0.0202189 0.0557535 -0.0333323 -0.0155779 0.060098 -0.0206394 -0.00490923 0.059982 -0.0433971 -0.0150572 -0.0536194 -0.040381 -0.0147129 -0.0589193 -0.0418251 -0.0253406 -0.0540906 -0.0381451 -0.0230201 -0.0522667 -0.0379483 -0.0132923 -0.0498897 -0.038436 -0.00841648 -0.0532064 -0.0348226 -0.0203981 -0.0509919 -0.0353187 -0.0154749 -0.0590814 -0.041599 -0.00520852 -0.048081 -0.0324742 -1.5729 -0.0699273 -0.0374241 -1.54285 -0.0844419 -0.0395466 -1.56257 -0.0789211 -0.045836 -1.52864 -0.0946201 -0.0459053 -1.503 -0.0970616 -0.04502 -1.55447 -0.0846843 -0.0504758 -1.55455 -0.0810524 -0.0588418 -1.5287 -0.0870944 -0.048314 -1.56252 -0.0737156 -0.0542958 -1.5428 -0.0748186 -0.0609899 -1.50293 -0.0884975 -0.0441817 -1.57276 -0.0634573 0.0771116 -1.57269 0.00647087 0.0919804 -1.54267 0.00949813 0.0881078 -1.56238 0.00486423 0.104959 -1.52849 0.00728614 0.107062 -1.50279 0.00835579 0.0955938 -1.55429 0.00300167 -0.0441798 -1.57306 0.0632169 -0.0541779 -1.54303 0.0746368 -0.0482157 -1.56277 0.0735597 -0.0587654 -1.52886 0.0870112 -0.0607216 -1.50314 0.0882729 -0.0502115 -1.55475 0.0808729 -0.0446271 -1.55467 0.0841582 -0.0456473 -1.52887 0.0944005 -0.0393457 -1.56265 0.0785989 -0.0372656 -1.54298 0.0843166 -0.0457589 -1.50315 0.0970054 -0.0325076 -1.57288 0.0698569 0.0954125 -1.55439 -0.00358048 0.10489 -1.52858 -0.0076687 0.0878704 -1.56241 -0.00521871 0.0922001 -1.54252 -0.00980189 0.107289 -1.50259 -0.00887072 0.077161 -1.57267 -0.00667924 0.0401263 -1.59391 0.0700011 0.0500306 -1.57398 0.0888257 0.0400618 -1.5965 0.062907 0.0436389 -1.58469 0.0762995 0.0559766 -1.55364 0.110088 0.0367778 -1.5992 0.0501514 0.0404484 -1.59391 -0.0699635 0.0519766 -1.57363 -0.0876521 0.0343663 -1.59643 -0.0663505 0.0446682 -1.58443 -0.0757856 0.0677427 -1.55394 -0.103509 0.0251432 -1.59957 -0.0571023 -0.0806359 -1.59393 -0.000511913 -0.102033 -1.57445 -0.001125 -0.0743648 -1.59633 0.00296677 -0.0879968 -1.58502 -0.000319625 -0.123514 -1.55329 -0.00673668 -0.0617154 -1.59903 0.00651918 -0.0271973 -1.61416 -0.053342 -0.0252709 -1.63292 -0.0525344 -0.032124 -1.6102 -0.0586194 -0.0305952 -1.63118 -0.0531869 -0.0299589 -1.65273 -0.0521479 -0.0348119 -1.60901 -0.0603713 0.0374215 -1.60084 0.0395631 0.0367849 -1.60448 0.0522271 0.0370218 -1.60069 0.0500523 0.0337384 -1.60397 0.0583743 0.0347813 -1.60969 0.0602593 0.0324065 -1.60086 0.0558703 -0.0530183 -1.60074 0.012494 -0.0636117 -1.60445 0.00562311 -0.0618907 -1.60065 0.00689025 -0.0673674 -1.604 -7.42011e-05 -0.069483 -1.60963 -8.37451e-05 -0.0645447 -1.60088 -3.05858e-05 -0.0348119 -1.60901 -0.0603713 -0.0305952 -1.63118 -0.0531869 -0.034558 -1.61035 -0.0571048 -0.0326037 -1.63293 -0.0480971 -0.0299589 -1.65273 -0.0521479 -0.0323329 -1.61424 -0.0501844 0.0324065 -1.60086 0.0558703 0.0337384 -1.60397 0.0583743 0.025139 -1.60063 0.0571285 0.0268558 -1.60446 0.0580831 0.0347813 -1.60969 0.0602593 0.0159588 -1.60059 0.0525614 0.0323506 -1.60093 -0.0560646 0.0338806 -1.60409 -0.0584127 0.0370875 -1.60069 -0.0504035 0.0370735 -1.60456 -0.0523382 0.0349875 -1.60978 -0.0602285 0.037754 -1.60064 -0.0401802 -0.034645 -1.60922 0.0602776 -0.0304511 -1.63129 0.0528892 -0.0319276 -1.61036 0.0582962 -0.0250417 -1.63302 0.0520918 -0.0298159 -1.65271 0.0517708 -0.0270291 -1.6143 0.0529191 0.0699987 -1.60925 -0.000242665 0.0612949 -1.63125 -0.000176066 0.0668372 -1.61033 -0.00161857 0.0579088 -1.63294 -0.00443516 0.0599336 -1.65258 -0.000163289 0.0597522 -1.6142 -0.00316315 -0.0645447 -1.60088 -3.05858e-05 -0.0673674 -1.604 -7.42011e-05 -0.0619788 -1.60068 -0.00695208 -0.0636149 -1.60453 -0.00586054 -0.069483 -1.60963 -8.37451e-05 -0.0533243 -1.60071 -0.0125919 0.0156933 -1.60093 -0.0522751 0.0270213 -1.60462 -0.0579794 0.0250132 -1.60077 -0.0571319 0.0338806 -1.60409 -0.0584127 0.0349875 -1.60978 -0.0602285 0.0323506 -1.60093 -0.0560646 -0.0322608 -1.61428 0.0501215 -0.0325074 -1.63295 0.0479719 -0.0344036 -1.61031 0.057038 -0.0304511 -1.63129 0.0528892 -0.0298159 -1.65271 0.0517708 -0.034645 -1.60922 0.0602776 0.0597813 -1.6142 0.00282892 0.0580122 -1.6329 0.00407427 0.0668804 -1.6103 0.0011975 0.0612949 -1.63125 -0.000176066 0.0599336 -1.65258 -0.000163289 0.0699987 -1.60925 -0.000242665 0.0373239 -1.59899 -0.0519921 0.0437607 -1.58472 -0.0771748 0.0401975 -1.59628 -0.0634375 0.0496148 -1.57395 -0.0886759 0.0553439 -1.55532 -0.107557 0.0404484 -1.59391 -0.0699635 0.0263812 -1.59895 0.0580976 0.0449262 -1.58461 0.0762586 0.0347274 -1.59618 0.0662869 0.051998 -1.57399 0.0873587 0.0654993 -1.5551 0.101369 0.0401263 -1.59391 0.0700011 -0.0626865 -1.59899 -0.00642759 -0.0885241 -1.58476 0.000392054 -0.0744199 -1.59615 -0.00333627 -0.101886 -1.57421 0.000942967 -0.121181 -1.5549 0.00607072 -0.0806359 -1.59393 -0.000511913 -0.0181921 0.0120354 0.00264724 -0.0177429 0.00809409 0.0109291 -0.0288371 0.00940644 0.0223514 -0.0239379 -0.00394877 0.025984 -0.012666 -0.00714507 0.00546868 -0.00569272 0.00833164 -0.0106283 -0.0194103 -0.023547 0.0305889 -0.00719592 0.00671279 5.83777e-05 -0.00492 0.0103722 -0.0210809 -0.0072962 -1.57127 -0.0118882 -0.0123321 -1.54523 -0.022137 -0.0148205 -1.56387 -0.027205 -0.0240905 -1.5357 -0.0453294 -0.0202613 -1.51422 -0.0367435 -0.0217776 -1.55429 -0.051803 -0.00576661 -1.5721 0.011861 -0.0121686 -1.54596 0.0212354 -0.0156094 -1.56442 0.0260625 -0.0267279 -1.53596 0.0432835 -0.0213488 -1.51429 0.0358939 -0.0335784 -1.55471 0.0442677 -0.0338887 -1.55441 -0.0446691 -0.0271386 -1.53571 -0.0435818 -0.0159979 -1.56411 -0.0264631 -0.0127146 -1.54576 -0.0217718 -0.0220536 -1.51424 -0.0361846 -0.00630926 -1.5718 -0.0122777 -0.0213311 -1.55468 0.0515525 -0.0238055 -1.53599 0.0452065 -0.0145503 -1.56439 0.0270103 -0.0121723 -1.54604 0.0219019 -0.0199866 -1.51449 0.0371314 -0.00713821 -1.57211 0.0116443 0.0137582 -1.57175 -0.000808025 0.0250359 -1.5455 -6.22529e-05 0.0307884 -1.56409 0.000479785 0.0511847 -1.53562 0.00144312 0.0421656 -1.51388 0.000397838 0.0555015 -1.55439 0.00687915 0.0429131 -0.000814923 -0.00571426 0.0283099 0.00366344 -0.00524744 0.0380654 0.00393357 -0.00938664 0.0208744 0.00712966 -0.00898046 0.0101303 0.00586068 -0.00469203 0.0335846 0.00930665 -0.0137 -0.0216076 -1.62949 -0.000120113 -0.0255148 -1.63919 1.53696e-06 -0.0226345 -1.62819 0.0132531 -0.0265171 -1.639 0.01387 -0.0292395 -1.64942 -3.63427e-05 -0.0252678 -1.62442 0.0268461 0.0110327 -1.62948 0.018629 0.012966 -1.6391 0.0220041 0.0230338 -1.62815 0.0128973 0.0254619 -1.63902 0.0159193 0.0147977 -1.64935 0.0253033 0.036027 -1.62441 0.00845989 -0.00849337 -1.60702 -0.014999 -0.00996539 -1.60579 -0.0174943 -0.00323067 -1.6061 -0.0208184 0.000174179 -1.60549 -0.0262565 -0.0120962 -1.60362 -0.0210139 0.00121861 -1.60418 -0.0310893 0.0362691 -1.6244 -0.00881499 0.0256767 -1.63891 -0.0162745 0.0230212 -1.62807 -0.0132228 0.0129483 -1.63904 -0.0223541 0.0148762 -1.64936 -0.0256306 0.0108915 -1.62938 -0.0189758 -0.0275415 -1.60425 -0.0146665 -0.0228768 -1.60555 -0.0131019 -0.0162574 -1.60616 -0.0133841 -0.00996539 -1.60579 -0.0174943 -0.0120962 -1.60362 -0.0210139 -0.00849337 -1.60702 -0.014999 -0.01022 -1.62436 0.035185 0.00138592 -1.63894 0.0299488 9.96551e-05 -1.62816 0.0261748 0.012966 -1.6391 0.0220041 0.0147977 -1.64935 0.0253033 0.0110327 -1.62948 0.018629 -0.00850972 -1.60694 0.0148203 -0.00992307 -1.60568 0.0173485 -0.0161941 -1.60608 0.0131614 -0.0225872 -1.6054 0.012925 -0.0119171 -1.60347 0.0209385 -0.0273759 -1.60419 0.0144706 0.0108915 -1.62938 -0.0189758 0.0129483 -1.63904 -0.0223541 -9.31406e-05 -1.62805 -0.0265503 0.001396 -1.63895 -0.0301939 0.0148762 -1.64936 -0.0256306 -0.0104775 -1.62429 -0.0356053 0.0173273 -1.60703 -9.21883e-05 0.0202209 -1.6058 -0.000148985 0.0197015 -1.60617 0.00739511 0.0226819 -1.60552 0.0130262 0.0243215 -1.60362 -0.000234136 0.02638 -1.60427 0.016423 -0.0254243 -1.62434 -0.0271678 -0.0265866 -1.6391 -0.0140892 -0.0226826 -1.6281 -0.0135253 -0.0255148 -1.63919 1.53696e-06 -0.0292395 -1.64942 -3.63427e-05 -0.0216076 -1.62949 -0.000120113 0.0266326 -1.60418 -0.0167647 0.0229381 -1.60552 -0.0135166 0.019851 -1.60613 -0.00762682 0.0202209 -1.6058 -0.000148985 0.0243215 -1.60362 -0.000234136 0.0173273 -1.60703 -9.21883e-05 0.0012482 -1.60409 0.0312064 0.000300632 -1.6054 0.0263734 -0.00325468 -1.60603 0.0207531 -0.00992307 -1.60568 0.0173485 -0.0119171 -1.60347 0.0209385 -0.00850972 -1.60694 0.0148203 0.056389 -1.55392 -0.00731974 0.051843 -1.535 -0.00209014 0.0313492 -1.56374 -0.000920588 0.0258665 -1.54482 -0.000458945 0.0436149 -1.51303 -0.00119034 0.0138445 -1.57163 0.000469264 0.0669551 -0.0336522 -0.102629 0.0643144 -0.0362315 -0.107712 0.0824172 -0.055572 -0.131468 0.0797445 -0.0582091 -0.136232 0.061002 -0.0371093 -0.111342 0.098177 -0.0827852 -0.160702 -0.235593 -0.130348 -0.0137759 -0.219608 -0.112892 -0.0101327 -0.25089 -0.150362 -0.00866675 -0.233634 -0.129596 -0.00540355 -0.202167 -0.0959886 -0.00661788 -0.26383 -0.1686 -0.00422424 0.171555 -1.3378 -0.0141606 0.0916411 -1.39115 -0.00796143 0.156017 -1.40129 -0.0150836 0.160549 -1.37973 -0.0100873 0.176106 -1.31468 -0.00957202 0.0994431 -1.32463 -0.00716767 0.165989 -1.35979 -0.00571092 0.0292034 -1.37724 -0.0013529 0.184295 -1.26759 -0.01211 -0.0976824 -1.33781 -0.141833 -0.0523835 -1.39113 -0.0757885 -0.0905859 -1.40128 -0.127873 -0.0886405 -1.37981 -0.134397 -0.096008 -1.31474 -0.14807 -0.0556306 -1.32461 -0.0828952 -0.0876177 -1.35989 -0.141181 -0.0156329 -1.37712 -0.0250792 -0.102281 -1.26757 -0.15389 0.189159 -0.699917 0.329542 0.185814 -0.794101 0.327595 0.189694 -0.700707 0.329578 0.187242 -0.794258 0.32703 0.180285 -0.888633 0.320631 0.19011 -0.700659 0.329546 -0.379941 -0.699775 -0.00118637 -0.376564 -0.793949 -0.00306906 -0.380239 -0.700617 -0.000731934 -0.376777 -0.794165 -0.00155771 -0.36777 -0.888457 -0.00436312 -0.380427 -0.700613 -0.000356088 0.191316 -0.700042 -0.328724 0.190866 -0.794272 -0.324184 0.191057 -0.700777 -0.329351 0.189746 -0.794222 -0.325499 0.187646 -0.888894 -0.316496 0.190661 -0.70091 -0.329884 0.0215153 -0.00276147 -0.050336 0.00609726 0.00468897 -0.0232622 0.00870203 0.00393457 -0.0359725 -0.00569272 0.00833164 -0.0106283 -0.00719592 0.00671279 5.83777e-05 -0.00492 0.0103722 -0.0210809 0.0330669 -0.0027108 0.0434901 0.0172929 0.00473844 0.0166171 0.0270375 0.00402906 0.0252321 0.0122232 0.00842886 0.00014042 0.0036918 0.00677408 -0.00652766 0.0209284 0.0105565 0.00601993 0.00694206 0.0122048 -0.0172414 0.00118701 -0.00789969 -0.0142017 0.0209284 0.0105565 0.00601993 0.0122232 0.00842886 0.00014042 -0.000483512 0.00821078 -0.0210129 -0.010942 -0.00453022 -0.0340818 0.0036918 0.00677408 -0.00652766 -0.0178786 -0.0251175 -0.0326548 -0.00483914 0.00956456 -0.0362411 0.111092 -0.089046 0.163504 0.0813826 -0.130959 0.127405 0.129587 -0.130654 0.197034 0.118557 -0.11334 0.185395 0.099646 -0.0754696 0.151751 0.0645516 -0.0916932 0.0972672 0.106841 -0.0962055 0.172307 0.0368176 -0.128973 0.0654443 0.092014 -0.0549846 0.129398 0.0163012 -0.0499826 -0.00137951 0.00938799 -0.0278188 -0.000329134 0.012169 -0.0513772 -0.00257353 0.0334638 -0.0499438 0.000373347 0.0325904 -0.0485166 0.000294819 0.0137816 -0.0325895 -0.00100571 0.0465129 -0.0441066 0.00246563 -3.18406e-19 1.06521e-18 -3.70227e-20 0.0173205 -0.047588 0.0003514 0.109553 -0.143288 0.0480664 0.0997815 -0.120922 0.0349847 0.119775 -0.196248 0.048669 0.109196 -0.173196 0.0339667 0.0967492 -0.12163 0.0326008 0.101085 -0.0905337 0.0336711 0.100631 -0.147708 0.0204946 0.0852507 -0.0742887 0.021881 0.096642 -0.0976969 0.0451365 -0.103208 -0.263153 0.0843267 -0.064376 -0.259313 0.0463843 -0.102607 -0.337422 0.0917138 -0.0895274 -0.306584 0.0927474 -0.0872112 -0.237104 0.0841041 -0.0735236 -0.201781 0.0570845 -0.0766004 -0.274644 0.0938818 -0.0301064 -0.201052 0.0102778 -0.102224 -0.196398 0.0793039 -0.0129773 -0.143569 -0.120068 -0.0195641 -0.119469 -0.105753 -0.0173393 -0.196893 -0.128906 -0.0246226 -0.174189 -0.112394 -0.0200426 -0.122294 -0.101137 -0.0214295 -0.0888196 -0.105413 -0.0317067 -0.149575 -0.0979547 -0.0245179 -0.0726853 -0.0879502 -0.00937919 -0.0976522 -0.107516 -2.39416e-18 1.18678e-17 1.92048e-18 4.63152e-19 -2.81881e-18 -7.50612e-18 -3.11921e-19 3.64568e-19 4.08314e-18 -0.012435 -0.00935751 -0.0163239 -0.0153143 -0.0077442 -0.0133511 3.37908e-19 -2.7282e-18 -3.15666e-19 -0.031834 -0.0299646 -0.0336096 7.37438e-20 4.78793e-19 4.65595e-19 -1.47693e-18 1.78314e-18 -8.42674e-19 0.0243105 -1.60539 -0.0248678 0.0265421 -1.59721 -0.0469218 0.0304176 -1.60202 -0.0371579 0.035016 -1.59283 -0.0620098 0.0306998 -1.58263 -0.0715319 0.0373239 -1.59899 -0.0519921 0.00939083 -1.60532 0.033248 0.0273162 -1.59712 0.0462082 0.0170322 -1.60192 0.0447522 0.036319 -1.59253 0.061386 0.0464315 -1.58238 0.0621862 0.0263812 -1.59895 0.0580976 -0.0335537 -1.60548 -0.00856972 -0.0541255 -1.59712 0.0006142 -0.0472094 -1.60203 -0.0077844 -0.0715167 -1.59246 0.000660072 -0.0781692 -1.58207 0.00938074 -0.0626865 -1.59899 -0.00642759 -0.0896806 -0.708577 0.171644 -0.0739203 -0.603574 0.149394 -0.0938019 -0.70884 0.170388 -0.0794916 -0.605 0.147831 -0.0651009 -0.508854 0.136608 -0.0972835 -0.7089 0.168759 -1.74457e-18 -4.05601e-20 -4.54376e-19 1.51801e-18 -1.93242e-18 2.10689e-18 -7.44695e-18 -2.47035e-18 2.23232e-18 0.0210471 -0.0106461 -0.00222717 0.0195471 -0.0083061 -0.00656078 -5.37973e-19 1.23734e-18 -3.38123e-19 0.0461011 -0.0317345 -0.0110111 -4.9125e-18 -5.50426e-19 -1.44176e-18 -7.77906e-19 -4.88495e-18 1.10638e-18 0.0367778 -1.5992 0.0501514 0.0354219 -1.59266 0.0620165 0.030359 -1.60204 0.036763 0.026551 -1.59715 0.0475206 0.0313416 -1.58243 0.0733693 0.0241746 -1.60539 0.0248079 0.0251432 -1.59957 -0.0571023 0.0363839 -1.59256 -0.0617414 0.0169616 -1.60183 -0.0447366 0.0278775 -1.59735 -0.0464948 0.0476234 -1.58274 -0.0633411 0.00962018 -1.60542 -0.0332736 -0.0617154 -1.59903 0.00651918 -0.0712737 -1.59263 -0.000553153 -0.0469954 -1.60199 0.00776692 -0.0542341 -1.5971 -0.000845874 -0.0786176 -1.58247 -0.00973964 -0.0335276 -1.6053 0.00840783 -0.202167 -0.0959886 -0.00661788 -0.203467 -0.0978493 -0.00193268 -0.233634 -0.129596 -0.00540355 -0.234502 -0.131038 -0.000925641 -0.203489 -0.0978447 0.00258381 -0.26383 -0.1686 -0.00422424 -0.0179583 0.0119018 -0.00280451 -0.00624555 0.0077274 0.00633702 -0.00474553 0.0103244 0.0209554 -0.0122328 -0.00754203 -0.00535022 -0.0235683 -0.00425411 -0.0259067 -0.0178516 0.00677617 -0.0144061 -0.018568 -0.0241922 -0.0302508 -0.00881251 0.00562397 -0.00831861 -0.0286301 0.00924407 -0.0224986 -0.00256991 -1.59955 0.000937876 -0.000858757 -1.60948 0.000652752 0.0021647 -1.60244 0.000485203 0.000725607 -1.61079 0.000752831 0.0003274 -1.61235 0.000327595 0.00645627 -1.60433 -0.000579946 0.00620117 -1.60419 0.000262648 0.000522952 -1.61067 -0.00107148 0.00201233 -1.60231 -0.000832395 -0.000927994 -1.60938 -0.00110238 0.000109925 -1.61219 -0.000548117 -0.00291165 -1.59934 -0.00132326 0.00463307 -1.57817 -0.00578001 0.00582097 -1.55175 -0.00838231 3.08462e-05 -1.57553 0.00235558 -0.00167362 -1.54785 0.00445892 0.00860711 -1.51765 -0.0130279 -0.00576661 -1.5721 0.011861 0.00286282 -1.57789 0.00687112 0.00454124 -1.55127 0.00921359 -0.00191565 -1.57501 -0.0014111 -0.00281213 -1.54699 -0.00390291 0.00705518 -1.51727 0.0138809 -0.0072962 -1.57127 -0.0118882 -0.00713821 -1.57211 0.0116443 -0.00309649 -1.54783 0.00406964 -0.00192351 -1.57537 0.0012274 0.00438806 -1.5516 -0.00935556 0.00688453 -1.51744 -0.0144122 0.00281809 -1.57792 -0.00712172 -0.00746548 -1.57767 -0.00137752 -0.0102603 -1.55145 -0.00100475 0.00206949 -1.57508 -0.00145479 0.00492546 -1.54743 -0.000989626 -0.015588 -1.51688 -0.00118146 0.0137582 -1.57175 -0.000808025 -0.00630926 -1.5718 -0.0122777 -0.00190929 -1.54752 -0.0049234 -9.82058e-05 -1.57515 -0.00261207 0.00590629 -1.55128 0.00813066 0.00908581 -1.51739 0.0129779 0.00469368 -1.57775 0.00561555 0.0251454 -0.0132644 -0.00990025 0.0510635 -0.0323565 -0.0196132 0.0483988 -0.0219134 -0.0130199 0.0240006 -0.01667 -0.0128538 0.0495766 -0.0299276 -0.0281016 -1.62134e-18 -9.76113e-18 -1.05573e-18 -0.00402965 -0.0132439 0.0267166 -0.00848591 -0.0322872 0.0540673 -0.0129974 -0.0219499 0.0486121 -0.000816552 -0.0166422 0.0271808 -0.000464858 -0.029885 0.0569314 1.81812e-19 -2.01159e-18 -1.52223e-19 -0.138895 -0.0446332 -0.0046847 -0.170467 -0.0677867 -0.00563974 -0.149541 -0.0507006 -0.00950134 -0.181059 -0.0751871 -0.0105253 -0.202167 -0.0959886 -0.00661788 -0.158204 -0.0549317 -0.014967 -0.380427 -0.700613 -0.000356088 -0.389778 -0.603437 0.000145704 -0.380239 -0.700617 -0.000731934 -0.38946 -0.602626 0.000686442 -0.387791 -0.519345 0.00174764 -0.379941 -0.699775 -0.00118637 0.190661 -0.70091 -0.329884 0.194996 -0.60371 -0.338221 0.191057 -0.700777 -0.329351 0.194467 -0.602815 -0.337968 0.192654 -0.519586 -0.33715 0.191316 -0.700042 -0.328724 0.0138445 -1.57163 0.000469264 0.00459429 -1.54701 0.000558859 0.00262342 -1.57516 0.000799072 -0.01002 -1.55112 0.000340309 -0.0162716 -1.51783 0.000804168 -0.0066305 -1.5778 0.00054065 0.000555489 -1.59959 -0.00304016 -0.000144121 -1.60959 -0.00111275 -0.00147205 -1.60261 0.00147819 -0.000771997 -1.6109 0.000221544 -0.000251865 -1.61238 0.000155168 -0.00274805 -1.60457 0.00525381 0.00252053 -1.59943 0.00180452 0.00116855 -1.60936 0.000285083 -0.000360898 -1.60239 -0.00221378 0.000310797 -1.61067 -0.00104932 0.000109925 -1.61219 -0.000548117 -0.00308517 -1.60434 -0.0053232 -0.0409569 -0.283168 -0.115442 -0.0360985 -0.212396 -0.107757 -0.0282768 -0.240874 -0.119617 -0.0246226 -0.174189 -0.112394 -0.0317067 -0.149575 -0.0979547 -0.0173393 -0.196893 -0.128906 -0.216467 -0.331773 -0.00130885 -0.209805 -0.409997 0.00130115 -0.150502 -0.344967 0.0043056 -0.14178 -0.425394 0.00640611 -0.200579 -0.494731 0.00351701 -0.0869694 -0.357514 0.0103439 -0.0027324 -1.60444 -0.00531286 -0.000895476 -1.61089 0.000112692 -0.00155934 -1.60251 -0.00123687 -0.000146473 -1.60954 0.00137908 -0.000251865 -1.61238 0.000155168 0.00050444 -1.59959 0.0031848 -0.00273759 -1.60461 0.00493274 0.000598331 -1.61089 0.00070079 -0.000102103 -1.60261 0.00191928 0.00133495 -1.60956 -0.000553593 0.0003274 -1.61235 0.000327595 0.00263271 -1.59969 -0.00204775 0.00606647 -0.376811 -0.039438 0.02956 -0.36205 0.0169672 0.0175181 -0.45464 -0.00751984 0.0447419 -0.437048 0.0520605 0.0540095 -0.348639 0.0729358 0.0319818 -0.535086 0.0276363 -0.138895 -0.0446332 -0.0046847 -0.171544 -0.0691943 -0.000934277 -0.170467 -0.0677867 -0.00563974 -0.203467 -0.0978493 -0.00193268 -0.203489 -0.0978447 0.00258381 -0.202167 -0.0959886 -0.00661788 -0.0766004 -0.274644 0.0938818 -0.0740451 -0.204493 0.0844427 -0.0872112 -0.237104 0.0841041 -0.0853445 -0.170119 0.0768967 -0.0700649 -0.143242 0.0749947 -0.102224 -0.196398 0.0793039 0.119775 -0.196248 0.048669 0.11736 -0.240131 0.0347256 0.109196 -0.173196 0.0339667 0.111472 -0.211064 0.0218302 0.121521 -0.281791 0.0213734 0.100631 -0.147708 0.0204946 -0.00392628 -0.0132219 -0.0266793 -0.000790171 -0.0165945 -0.0271099 1.45361e-18 3.13479e-18 2.40621e-18 -0.00851941 -0.0322411 -0.054049 -0.000467149 -0.0298847 -0.0567797 -0.0128291 -0.0218809 -0.0485572 0.0309494 -1.58669 -0.00631338 0.0232376 -1.58014 -0.00184568 0.0154881 -1.59696 -0.00182578 0.00971198 -1.59129 -0.000277609 0.0138445 -1.57163 0.000469264 0.00645627 -1.60433 -0.000579946 0.00620117 -1.60419 0.000262648 0.00979091 -1.59128 5.45112e-05 0.015148 -1.59684 0.00138675 0.0228622 -1.58029 0.00145039 0.0137582 -1.57175 -0.000808025 0.0303811 -1.58673 0.00575763 -0.00984719 -1.58695 0.0292635 -0.00980405 -1.58053 0.0206093 -0.00604193 -1.59705 0.0138273 -0.0045321 -1.59155 0.00853687 -0.00713821 -1.57211 0.0116443 -0.00274805 -1.60457 0.00525381 -0.0203644 -1.5867 -0.0235449 -0.0128384 -1.58025 -0.0191345 -0.00887873 -1.59682 -0.0124898 -0.00493771 -1.59127 -0.00847027 -0.00630926 -1.5718 -0.0122777 -0.00308517 -1.60434 -0.0053232 0.125064 -0.179521 0.241782 0.0890392 -0.176079 0.166913 0.10629 -0.130504 0.21074 0.120317 -0.157534 0.22647 0.137985 -0.210241 0.255837 0.105308 -0.230577 0.193722 0.132747 -0.18475 0.240586 0.0718284 -0.223588 0.122709 0.142458 -0.235799 0.270011 -0.00273759 -1.60461 0.00493274 -0.0044877 -1.59159 0.00807246 -0.00855807 -1.59716 0.0120639 -0.0124868 -1.58059 0.0187008 -0.00576661 -1.5721 0.011861 -0.0200593 -1.58704 0.0230683 -0.0027324 -1.60444 -0.00531286 -0.0046809 -1.59124 -0.00856828 -0.00616671 -1.59688 -0.0139312 -0.00998468 -1.58006 -0.0207857 -0.0072962 -1.57127 -0.0118882 -0.0101254 -1.58665 -0.0294713 -0.081991 -0.00921394 0.0151048 -0.0998427 -0.0204821 0.00959115 -0.0684231 -0.00618812 0.0105765 -0.0840174 -0.0142352 0.00561888 -0.115632 -0.030354 0.00475133 -0.0542687 -0.0028212 0.0064991 -0.0840174 -0.0142352 0.00561888 -0.055863 -0.00423195 0.00161385 -0.0542687 -0.0028212 0.0064991 -0.0852202 -0.0153986 0.000780104 -0.0556712 -0.00395492 -0.00310765 -0.115632 -0.030354 0.00475133 0.0429131 -0.000814923 -0.00571426 0.0417585 -0.00206618 -0.00160936 0.0283099 0.00366344 -0.00524744 0.0277815 0.00265568 -0.000978783 0.0426733 -0.00232849 0.00230233 0.0101303 0.00586068 -0.00469203 -0.015588 -1.51688 -0.00118146 0.00388764 -1.45199 -0.00131038 0.0124754 -1.51607 -0.000630543 0.0422695 -1.45126 0.00287932 0.0337874 -1.38007 0.00123488 0.0421656 -1.51388 0.000397838 0.00860711 -1.51765 -0.0130279 -0.000813577 -1.45232 0.00378467 -0.00571294 -1.51661 0.010869 -0.0236714 -1.45162 0.0349702 -0.0179536 -1.38048 0.0283924 -0.0213488 -1.51429 0.0358939 0.00705518 -1.51727 0.0138809 -0.00281487 -1.45237 -0.00286284 -0.00647325 -1.51647 -0.010636 -0.0183254 -1.45169 -0.038165 -0.0154877 -1.38042 -0.0300623 -0.0202613 -1.51422 -0.0367435 -0.0348119 -1.60901 -0.0603713 -0.0413228 -1.58381 -0.0702183 -0.032124 -1.6102 -0.0586194 -0.0386654 -1.58848 -0.0653751 -0.0504758 -1.55455 -0.0810524 -0.0271973 -1.61416 -0.053342 0.0597522 -1.6142 -0.00316315 0.0760686 -1.58837 0.000689366 0.0668372 -1.61033 -0.00161857 0.0817085 -1.58364 0.000469162 0.0955938 -1.55429 0.00300167 0.0699987 -1.60925 -0.000242665 -0.0323329 -1.61424 -0.0501844 -0.0371251 -1.58844 -0.0663569 -0.034558 -1.61035 -0.0571048 -0.0401716 -1.5838 -0.0710091 -0.04502 -1.55447 -0.0846843 -0.0348119 -1.60901 -0.0603713 -0.0270291 -1.6143 0.0529191 -0.0384886 -1.58863 0.0650358 -0.0319276 -1.61036 0.0582962 -0.041076 -1.58385 0.0700256 -0.0502115 -1.55475 0.0808729 -0.034645 -1.60922 0.0602776 -0.034645 -1.60922 0.0602776 -0.0398779 -1.58392 0.070777 -0.0344036 -1.61031 0.057038 -0.0369798 -1.58857 0.0660878 -0.0446271 -1.55467 0.0841582 -0.0322608 -1.61428 0.0501215 0.0699987 -1.60925 -0.000242665 0.0816872 -1.58378 -0.00105325 0.0668804 -1.6103 0.0011975 0.0760373 -1.58844 -0.00108504 0.0954125 -1.55439 -0.00358048 0.0597813 -1.6142 0.00282892 0.118523 -1.0812 -0.236438 0.120421 -0.974643 -0.232483 0.158117 -1.03618 -0.307111 0.0844954 -1.01987 -0.168555 0.083367 -0.909367 -0.16237 0.0836458 -1.12508 -0.171959 -0.263832 -1.08095 0.0156278 -0.187982 -1.01957 0.0111002 -0.261337 -0.974335 0.0120173 -0.190557 -1.12482 0.0135403 -0.181971 -0.908912 0.00899401 -0.344839 -1.03593 0.0167431 0.145652 -1.08091 0.220606 0.141298 -0.974298 0.220232 0.187098 -1.0359 0.290222 0.103842 -1.01953 0.157134 0.0990287 -0.908863 0.152962 0.107223 -1.12478 0.158161 0.194977 -1.18582 0.0082757 0.190619 -1.23249 0.00716682 0.184769 -1.26752 0.0113556 0.116346 -1.22953 0.00506937 0.120376 -1.1443 0.0025044 0.199792 -1.14941 0.00478469 0.047913 -1.18789 -0.000496739 0.195452 -1.19851 0.00367347 0.201852 -1.09893 0.0046337 -0.0898968 -1.18611 -0.173256 -0.0886758 -1.23274 -0.168911 -0.0821249 -1.26782 -0.165946 -0.0534004 -1.22983 -0.103529 -0.0576377 -1.1446 -0.10575 -0.0953264 -1.14965 -0.175674 -0.0240519 -1.18819 -0.0414733 -0.0941233 -1.1987 -0.171346 -0.0964865 -1.09923 -0.177396 -0.104802 -1.1864 0.164467 -0.100254 -1.24436 0.160111 -0.102206 -1.26802 0.153936 -0.0625937 -1.23003 0.0979272 -0.0623149 -1.14486 0.102504 -0.103583 -1.16239 0.16984 -0.0236803 -1.18824 0.0415667 -0.0982486 -1.22307 0.164907 -0.105314 -1.09959 0.172531 0.0108915 -1.62938 -0.0189758 0.0177805 -1.62038 -0.0104745 0.0230212 -1.62807 -0.0132228 0.0307251 -1.61647 -0.00528034 0.0242626 -1.61048 -0.00213492 0.0362691 -1.6244 -0.00881499 -0.0104775 -1.62429 -0.0356053 -0.0109212 -1.61645 -0.0292973 -9.31406e-05 -1.62805 -0.0265503 9.25486e-06 -1.62042 -0.0207843 -0.0106991 -1.61039 -0.0222995 0.0108915 -1.62938 -0.0189758 -0.0216076 -1.62949 -0.000120113 -0.0177261 -1.62047 -0.0104315 -0.0226826 -1.6281 -0.0135253 -0.019661 -1.6165 -0.0241816 -0.0136735 -1.61055 -0.0203184 -0.0254243 -1.62434 -0.0271678 0.036027 -1.62441 0.00845989 0.0308028 -1.61657 0.00494438 0.0230338 -1.62815 0.0128973 0.0180308 -1.62052 0.0101066 0.0245948 -1.61057 0.00166062 0.0110327 -1.62948 0.018629 -0.0252678 -1.62442 0.0268461 -0.0195604 -1.61658 0.023997 -0.0226345 -1.62819 0.0132531 -0.0176821 -1.62054 0.0102518 -0.01365 -1.6106 0.0203083 -0.0216076 -1.62949 -0.000120113 0.0110327 -1.62948 0.018629 0.000269389 -1.62056 0.0203958 9.96551e-05 -1.62816 0.0261748 -0.0106623 -1.6166 0.0289334 -0.010377 -1.61062 0.0219135 -0.01022 -1.62436 0.035185 -0.0542687 -0.0028212 0.0064991 -0.055863 -0.00423195 0.00161385 -0.02761 0.00343158 0.00515984 -0.0287958 0.00248416 0.000450732 -0.0556712 -0.00395492 -0.00310765 -0.00409112 0.00574732 0.00393208 0.0669551 -0.0336522 -0.102629 0.0824172 -0.055572 -0.131468 0.0795724 -0.0440823 -0.116628 0.0953888 -0.0697065 -0.146307 0.098177 -0.0827852 -0.160702 0.0920715 -0.0549024 -0.129662 -2.98658e-18 6.12538e-18 7.34027e-18 -0.00491622 -0.0308899 -0.00770911 -2.40809e-19 -7.82435e-18 3.43991e-18 -0.0042823 -0.0278168 -0.00774379 -0.0039506 -0.0516254 -0.0109828 -6.55015e-18 4.64091e-18 5.19029e-18 5.04818e-18 2.34061e-18 -3.84076e-18 0.00938799 -0.0278188 -0.000329134 -3.18406e-19 1.06521e-18 -3.70227e-20 0.00938014 -0.0307158 0.000218282 0.012169 -0.0513772 -0.00257353 -1.379e-17 -1.00604e-17 -5.40001e-18 7.32403e-18 2.75246e-18 7.91596e-18 -0.00453398 -0.027674 0.0084082 1.69863e-18 -2.49677e-18 -1.59777e-18 -0.00495 -0.0306088 0.00807248 -0.0038967 -0.0511248 0.0120564 -2.04772e-18 1.63978e-17 4.33676e-18 -0.02747 -1.59587 -0.0392226 -0.0192807 -1.61077 -0.0375254 -0.0362527 -1.58463 -0.0509684 -0.0270156 -1.60413 -0.0472265 -0.0104775 -1.62429 -0.0356053 -0.0441817 -1.57276 -0.0634573 0.0771116 -1.57269 0.00647087 0.0545101 -1.60415 -0.000319627 0.0621831 -1.58467 0.00579937 0.0421535 -1.61072 -0.0021759 0.0362691 -1.6244 -0.00881499 0.0475584 -1.5958 0.00404921 -0.0324742 -1.5729 -0.0699273 -0.027049 -1.60421 -0.0470893 -0.0258237 -1.5849 -0.0568809 -0.0226641 -1.61087 -0.0355523 -0.0254243 -1.62434 -0.0271678 -0.0201453 -1.59608 -0.0434199 -0.0441798 -1.57306 0.0632169 -0.0268399 -1.60437 0.0468921 -0.0361449 -1.58504 0.0505993 -0.0190669 -1.61091 0.0371605 -0.01022 -1.62436 0.035185 -0.027317 -1.59615 0.038824 0.0483277 -1.59593 -0.00458615 0.042367 -1.61101 0.00172533 0.0626639 -1.58453 -0.00617017 0.0545723 -1.60418 -5.09539e-05 0.036027 -1.62441 0.00845989 0.077161 -1.57267 -0.00667924 -0.0198533 -1.59597 0.0432172 -0.0225004 -1.61086 0.0353345 -0.0256519 -1.58474 0.0567266 -0.0270568 -1.60424 0.0469058 -0.0252678 -1.62442 0.0268461 -0.0325076 -1.57288 0.0698569 -0.00932624 -0.0494926 -0.0115183 -0.00467309 -0.026805 -0.00704644 -0.00786105 -0.0506614 -0.00790345 -0.016768 -0.049498 -0.0286694 -0.0166611 -0.0485598 -0.0282304 -0.00789964 -0.0316722 -0.0101384 -0.0230132 -0.0439088 -0.0430342 -2.88634e-18 1.95125e-18 1.52896e-18 -0.00873257 -0.0480079 -0.0137479 -0.00713785 -0.0496305 0.0151421 -0.00453398 -0.027674 0.0084082 -0.0038967 -0.0511248 0.0120564 -0.0171057 -0.049506 0.0295465 -0.0166988 -0.0478851 0.0287955 -0.00620059 -0.0325082 0.0126729 -0.0248316 -0.0430743 0.039795 1.69863e-18 -2.49677e-18 -1.59777e-18 -0.00922162 -0.0472665 0.0151593 0.194074 -0.707847 -0.00845952 0.166706 -0.601397 -0.0106579 0.193856 -0.708737 -0.00456969 0.166178 -0.602838 -0.00471972 0.150116 -0.50228 -0.0112821 0.193224 -0.70918 -0.000836403 -8.65236e-19 9.00278e-18 1.41951e-18 -2.29835e-18 -1.26753e-18 -2.75079e-19 -3.61214e-19 4.1146e-18 -2.88557e-18 -0.00922677 -0.0112208 0.0195651 -0.00454265 -0.00887716 0.0207149 4.99751e-18 -4.643e-18 -1.28966e-18 -0.0149455 -0.0338007 0.0466119 -2.83328e-18 2.14343e-18 1.30416e-18 -3.06327e-18 1.57125e-18 -1.71687e-18 -0.103995 -0.708048 -0.16438 -0.0922884 -0.601644 -0.139559 -0.100519 -0.708823 -0.166059 -0.0868192 -0.602967 -0.141942 -0.0845192 -0.502793 -0.124717 -0.0969074 -0.709264 -0.16722 -0.0220536 -1.51424 -0.0361846 -0.0221488 -1.44993 -0.0333345 -0.00592268 -1.51658 -0.0110017 -6.37104e-05 -1.45056 -0.00208194 -0.0156329 -1.37712 -0.0250792 0.00908581 -1.51739 0.0129779 0.0436149 -1.51303 -0.00119034 0.0397973 -1.45017 -0.00265735 0.012482 -1.5163 -0.000126746 0.0016336 -1.45068 0.000311637 0.0292034 -1.37724 -0.0013529 -0.0162716 -1.51783 0.000804168 -0.0199866 -1.51449 0.0371314 -0.0174784 -1.45021 0.0357834 -0.00630161 -1.51676 0.0105567 -0.00149665 -1.45081 0.00100906 -0.0135938 -1.37749 0.0259724 0.00688453 -1.51744 -0.0144122 0.0409063 -1.09614 -0.0560574 0.0323794 -1.19257 -0.0423405 0.0716159 -1.11819 -0.103231 0.0620384 -1.21319 -0.0861988 0.024199 -1.28245 -0.0299732 0.102337 -1.13925 -0.149825 0.028183 -1.09603 0.0631344 0.0205948 -1.19243 0.0489164 0.053686 -1.11806 0.113378 0.0437273 -1.21303 0.0965479 0.0139725 -1.2823 0.0356416 0.078692 -1.13908 0.163305 -0.0688143 -1.09571 -0.00750664 -0.0526966 -1.1921 -0.00696281 -0.125068 -1.11773 -0.0104972 -0.105514 -1.21269 -0.0107022 -0.0378729 -1.28198 -0.00606702 -0.180805 -1.13875 -0.0137612 -0.197166 -0.0890087 0.0140886 -0.182266 -0.07701 0.00812282 -0.158085 -0.0550663 0.0145433 -0.12435 -0.0900929 0.00781887 -0.159467 -0.129141 0.0073603 -0.220747 -0.114766 0.00780902 -0.0903008 -0.126202 0.000756184 -0.203489 -0.0978447 0.00258381 -0.235488 -0.130443 0.0134219 0.00690514 0.0120506 0.01684 0.00899745 0.00783043 0.00219155 0.0209062 0.0104246 -0.00643823 0.00120807 -0.00802819 0.0138682 -0.0108862 -0.00463567 0.0338147 -0.00321494 0.00692481 0.0225832 -0.0178093 -0.0252351 0.0323559 -0.00240778 0.00572766 0.011715 -0.00486081 0.00943233 0.0359111 -1.95212e-19 -3.81906e-18 -2.37355e-18 -0.00467309 -0.026805 -0.00704644 -2.88634e-18 1.95125e-18 1.52896e-18 -0.00439495 -0.0301662 -0.00760145 -0.00786105 -0.0506614 -0.00790345 3.71332e-18 9.34817e-18 7.1782e-18 -0.0865548 -1.36636 0.140369 -0.0837292 -1.36037 0.143919 -0.0781941 -1.41167 0.131192 -0.0752735 -1.40755 0.13418 -0.0803373 -1.35694 0.146406 -0.069622 -1.45339 0.120949 -0.0434748 -0.530241 -0.0137882 -0.0812262 -0.445703 -0.0117156 -0.00631705 -0.454066 -0.0184645 -0.0429798 -0.373649 -0.0157873 -0.114984 -0.368401 -0.00839002 0.0273492 -0.37957 -0.0237359 -0.0293074 -0.0186568 0.0428705 -0.0321477 -0.0178332 0.0386713 -0.0187783 -0.00890175 0.0210038 -0.0194785 -0.0102825 0.0183388 -0.035458 -0.0223003 0.0351468 1.23259e-18 3.04056e-19 -1.37677e-18 1.09786e-18 -1.86749e-18 6.80165e-19 -0.0196434 -0.0100946 -0.0182001 -0.0189372 -0.00887292 -0.0208942 -0.0324261 -0.0175675 -0.0383985 -0.0358435 -0.0216389 -0.0349166 -0.0290992 -0.0179967 -0.042651 -0.0211217 -0.0131522 -0.0165216 -0.0425527 -0.032247 -0.0342262 -0.0358435 -0.0216389 -0.0349166 -0.0229931 -0.0165098 -0.0140948 -0.0489761 -0.0295607 -0.0288783 0 3.16178e-18 -1.39692e-18 -0.0230067 -0.0183175 -0.0467504 -0.0174156 -0.0176364 -0.0474962 -0.00902346 -0.00887536 -0.0269899 -0.0061568 -0.0101478 -0.0262737 -0.0128291 -0.0218809 -0.0485572 -2.77522e-18 3.5221e-18 6.69193e-18 5.35545e-19 6.38105e-18 4.29472e-19 -0.0062439 -0.010172 0.0262871 -0.00916026 -0.00904019 0.0272087 -0.017623 -0.0177519 0.0477208 -0.0129974 -0.0219499 0.0486121 -0.0229552 -0.018801 0.0471849 2.88295e-20 -4.51674e-18 -1.78194e-18 0.0258507 -0.0101489 -0.00776762 0.0281453 -0.00897058 -0.00565922 0.0499511 -0.0177309 -0.00875671 0.0483988 -0.0219134 -0.0130199 0.0523426 -0.0185721 -0.00360046 0.0521001 -0.0186489 0.0041198 0.0497803 -0.0179097 0.00869254 0.0279052 -0.00902217 0.00585529 0.0256776 -0.0103073 0.00780663 0.0482941 -0.0223271 0.0131666 -4.50644e-18 4.27603e-18 3.12172e-18 0.19011 -0.700659 0.329546 0.195315 -0.599342 0.337448 0.189694 -0.700707 0.329578 0.195673 -0.598568 0.33688 0.195333 -0.512039 0.334106 0.189159 -0.699917 0.329542 -0.035458 -0.0223003 0.0351468 -0.044738 -0.0269476 0.0524041 -0.0500296 -0.0358994 0.049194 -0.0548703 -0.0378199 0.061996 -0.0465413 -0.0269454 0.0624121 -0.0636066 -0.0517779 0.0614179 -0.0639429 -0.0514657 -0.0614881 -0.054961 -0.0374774 -0.0623503 -0.0503674 -0.0351694 -0.0491158 -0.0446413 -0.0265203 -0.0524137 -0.0465014 -0.02658 -0.0627541 -0.0358435 -0.0216389 -0.0349166 -0.0206394 -0.00490923 0.059982 -0.0240747 -0.0130154 0.0578161 -0.0199603 -0.00487695 0.0506168 -0.0244679 -0.011561 0.0516279 -0.0266262 -0.0202189 0.0557535 -0.0199387 -0.00386028 0.0430998 -0.041599 -0.00520852 -0.048081 -0.0379483 -0.0132923 -0.0498897 -0.0337882 -0.00510239 -0.0428021 -0.0324003 -0.0117061 -0.0472119 -0.0348226 -0.0203981 -0.0509919 -0.0272857 -0.00397935 -0.0390509 -0.358216 -0.952677 -0.0135224 -0.368734 -0.87816 -0.00740414 -0.368141 -0.868127 -0.00987291 -0.274186 -0.889816 -0.00978787 -0.264587 -0.975329 -0.0125876 -0.358553 -0.961547 -0.00979441 -0.187922 -0.911563 -0.00934933 -0.36777 -0.888457 -0.00436312 -0.345054 -1.03584 -0.0171776 0.167543 -0.952997 0.31691 0.178116 -0.878395 0.322972 0.175681 -0.868427 0.323691 0.128837 -0.890129 0.242236 0.121597 -0.975657 0.235315 0.17095 -0.9618 0.315339 0.0861649 -0.911894 0.167284 0.180285 -0.888633 0.320631 0.157786 -1.03617 0.307323 0.190937 -0.953199 -0.303752 0.190998 -0.878509 -0.31647 0.192751 -0.86842 -0.314416 0.145414 -0.890144 -0.232194 0.143236 -0.975817 -0.222788 0.1879 -0.962003 -0.305915 0.102089 -0.911961 -0.157797 0.187646 -0.888894 -0.316496 0.187548 -1.03639 -0.290385 -0.0128291 -0.0218809 -0.0485572 -0.0232505 -0.0270781 -0.0650712 -0.0173577 -0.0352784 -0.0680343 -0.0260175 -0.0380034 -0.0787803 -0.0307939 -0.0272708 -0.071885 -0.0207397 -0.0517927 -0.0856935 -0.069622 -1.45339 0.120949 -0.0597955 -1.50586 0.103843 -0.0710688 -1.45649 0.118294 -0.0607553 -1.50998 0.100483 -0.0499548 -1.54806 0.086701 -0.0710671 -1.46557 0.113289 -0.0622938 -1.46569 0.1177 -0.0565389 -1.51007 0.102869 -0.0665656 -1.45638 0.120669 -0.0597955 -1.50586 0.103843 -0.0499548 -1.54806 0.086701 -0.069622 -1.45339 0.120949 0.133418 -1.46587 -0.00541804 0.117679 -1.50979 -0.00268533 0.138073 -1.45616 -0.00301031 0.120202 -1.50544 -0.000269975 0.100492 -1.54765 -0.000240054 0.139848 -1.453 -0.000386754 -0.203389 -0.525988 -0.00409115 -0.122458 -0.528189 -0.00866647 -0.152522 -0.609936 -0.00719182 -0.0708771 -0.614126 -0.0107071 -0.0434748 -0.530241 -0.0137882 -0.098842 -0.698648 -0.00883249 -0.0698818 -1.45317 -0.121122 -0.060023 -1.50566 -0.104134 -0.0668298 -1.45621 -0.121006 -0.056668 -1.50981 -0.103226 -0.0500627 -1.54801 -0.0871377 -0.0623808 -1.46541 -0.118312 0.139848 -1.453 -0.000386754 0.120202 -1.50544 -0.000269975 0.138189 -1.45605 0.0022435 0.117673 -1.5096 0.00224975 0.100492 -1.54765 -0.000240054 0.133692 -1.46529 0.00475268 -0.0707408 -1.46553 -0.113157 -0.0607717 -1.50991 -0.100795 -0.0711496 -1.45617 -0.118343 -0.060023 -1.50566 -0.104134 -0.0500627 -1.54801 -0.0871377 -0.0698818 -1.45317 -0.121122 -0.0216033 -0.0514727 0.0855999 -0.0264335 -0.0374639 0.078476 -0.0178481 -0.0352362 0.0683785 -0.0236586 -0.027132 0.0651029 -0.0310349 -0.0269577 0.071373 -0.0129974 -0.0219499 0.0486121 6.16553e-20 0 -2.89792e-19 -0.00477148 -0.0269671 0.00774149 -0.0043764 -0.0303188 0.00822331 7.93926e-20 3.41236e-18 -4.5788e-19 -0.00810977 -0.0505421 0.00896636 -3.51364e-18 9.71414e-18 2.24184e-18 0.0981958 -0.524452 0.177646 0.0539839 -0.52754 0.109998 0.0702474 -0.609258 0.135339 0.0264739 -0.614441 0.0663673 0.0101285 -0.530576 0.0440401 0.0420803 -0.698926 0.0897355 0.105351 -0.524426 -0.174017 0.0687896 -0.527726 -0.1017 0.0826855 -0.609393 -0.128595 0.0449493 -0.614856 -0.0560316 0.0336461 -0.531051 -0.0310418 0.0573492 -0.699112 -0.0815386 -0.0208354 -0.0130117 0.0165229 -0.0230345 -0.0165971 0.0143781 1.06554e-18 3.50605e-19 -1.64905e-19 -0.0422178 -0.0312191 0.0336383 -0.0486395 -0.0308882 0.0297015 -0.035458 -0.0223003 0.0351468 0.024755 -0.0129482 0.0098041 0.0241485 -0.0166862 0.0127705 5.84657e-18 -9.8661e-18 5.42455e-18 0.0502335 -0.0308846 0.0197981 0.0501655 -0.0316033 0.0272973 0.0482941 -0.0223271 0.0131666 0.06225 -0.00508779 -0.0119905 0.0602849 -0.0118028 -0.00737482 0.0524458 -0.00301533 -0.00876027 0.0538525 -0.00832456 -0.00466552 0.059797 -0.0171094 -0.00370751 0.0429131 -0.000814923 -0.00571426 -2.83328e-18 2.14343e-18 1.30416e-18 4.99751e-18 -4.643e-18 -1.28966e-18 -1.32646e-18 5.74136e-18 1.13922e-18 -4.56033e-18 -1.25276e-19 6.48314e-19 -3.06327e-18 1.57125e-18 -1.71687e-18 1.81812e-19 -2.01159e-18 -1.52223e-19 -4.9125e-18 -5.50426e-19 -1.44176e-18 -5.37973e-19 1.23734e-18 -3.38123e-19 -1.28499e-19 -6.74499e-18 -5.40459e-19 -3.49322e-19 3.07867e-18 4.36457e-19 -7.77906e-19 -4.88495e-18 1.10638e-18 -1.62134e-18 -9.76113e-18 -1.05573e-18 -0.0321809 -1.21805 -0.053192 0.00679873 -1.23723 0.00485854 -0.023868 -1.30102 -0.038469 0.0127902 -1.31881 0.0138614 0.044143 -1.25483 0.059537 -0.0156329 -1.37712 -0.0250792 0.0621001 -1.2181 -0.00166295 -0.00764464 -1.23729 0.00312536 0.0451077 -1.30107 -0.00179965 -0.0184757 -1.3189 0.00383605 -0.0736484 -1.25487 0.00817685 0.0292034 -1.37724 -0.0013529 0.0297713 -1.25511 -0.0679968 0.00592923 -1.31909 -0.018019 0.00107582 -1.23749 -0.00828308 -0.0210532 -1.30129 0.0398433 -0.0135938 -1.37749 0.0259724 -0.0297163 -1.2183 0.0544668 -8.86869e-18 3.0803e-18 5.18991e-18 0.00929675 -0.0304654 -0.000271829 -7.13936e-19 5.7311e-18 7.21672e-18 0.0090376 -0.0272594 0.0003204 0.0117231 -0.0507849 0.00248415 2.47439e-18 -3.07137e-18 -2.18657e-19 0.0101285 -0.530576 0.0440401 0.0306837 -0.444059 0.0755676 -0.0125022 -0.452353 0.0142997 0.00806811 -0.370114 0.0445846 0.0502244 -0.365004 0.10287 -0.0338491 -0.37596 -0.0118122 -0.0972333 -1.33813 0.141489 -0.0567376 -1.32662 0.0845406 -0.102206 -1.26802 0.153936 -0.0953839 -1.31835 0.147723 -0.0878588 -1.38312 0.133809 -0.0534077 -1.39284 0.0771367 -0.0865548 -1.36636 0.140369 -0.0179536 -1.38048 0.0283924 -0.0897514 -1.40147 0.126755 0.0336461 -0.531051 -0.0310418 0.0508416 -0.443707 -0.0644346 0.0190405 -0.452295 0.0041134 0.0346557 -0.369852 -0.028841 0.0641975 -0.364723 -0.0946847 0.00683261 -0.375724 0.0355313 1.45361e-18 3.13479e-18 2.40621e-18 4.65646e-18 1.34047e-17 -2.71542e-18 1.38203e-18 1.20914e-17 -2.53883e-18 -3.13672e-18 -6.5616e-18 1.49058e-18 9.12244e-18 9.64819e-19 -7.98369e-18 1.3429e-18 5.9096e-18 -1.40364e-18 -0.119371 -0.0284651 -0.0152615 -0.149541 -0.0507006 -0.00950134 -0.158204 -0.0549317 -0.014967 -0.111393 -0.0264912 -0.00964033 -0.138895 -0.0446332 -0.0046847 -0.0821122 -0.0091415 -0.0153623 -0.0821122 -0.0091415 -0.0153623 -0.0699092 -0.00744783 -0.00879045 -0.111393 -0.0264912 -0.00964033 -0.0956778 -0.0198728 -0.00391691 -0.138895 -0.0446332 -0.0046847 -0.0556712 -0.00395492 -0.00310765 0.0482941 -0.0223271 0.0131666 0.0679652 -0.0271037 0.0123375 0.0681052 -0.0359946 0.0186531 0.0816197 -0.0380608 0.0163615 0.077593 -0.0271321 0.00888332 0.0856529 -0.0520255 0.0245769 0.0852405 -0.0525918 -0.0248128 0.081617 -0.038263 -0.0168745 0.068089 -0.0356864 -0.0189537 0.0682392 -0.0271423 -0.0125026 0.0778243 -0.0271467 -0.00957949 0.0483988 -0.0219134 -0.0130199 -0.0254243 -1.62434 -0.0271678 -0.027049 -1.60421 -0.0470893 -0.0290375 -1.6194 -0.0396982 -0.0324968 -1.59457 -0.0591342 -0.0324742 -1.5729 -0.0699273 -0.0323329 -1.61424 -0.0501844 0.0362691 -1.6244 -0.00881499 0.0545101 -1.60415 -0.000319627 0.0489597 -1.61943 -0.00561589 0.0676237 -1.59448 0.00106215 0.0771116 -1.57269 0.00647087 0.0597522 -1.6142 -0.00316315 -0.0271973 -1.61416 -0.053342 -0.0347512 -1.59452 -0.057969 -0.0196398 -1.61931 -0.0452003 -0.0270156 -1.60413 -0.0472265 -0.0441817 -1.57276 -0.0634573 -0.0104775 -1.62429 -0.0356053 -0.01022 -1.62436 0.035185 -0.0268399 -1.60437 0.0468921 -0.0194451 -1.61952 0.0447564 -0.0346135 -1.59473 0.0576222 -0.0441798 -1.57306 0.0632169 -0.0270291 -1.6143 0.0529191 -0.0322608 -1.61428 0.0501215 -0.0325064 -1.59464 0.0589741 -0.028984 -1.61943 0.0395342 -0.0270568 -1.60424 0.0469058 -0.0325076 -1.57288 0.0698569 -0.0252678 -1.62442 0.0268461 0.0597813 -1.6142 0.00282892 0.0676159 -1.59451 -0.0014234 0.0489086 -1.61933 0.00532313 0.0545723 -1.60418 -5.09539e-05 0.077161 -1.57267 -0.00667924 0.036027 -1.62441 0.00845989 0.0224696 -0.376068 0.0225068 0.0203445 -0.289314 0.0225018 -0.0317286 -0.366472 0.0162438 -0.0288432 -0.28307 0.0157516 0.0200185 -0.214991 0.0209967 -0.0869694 -0.357514 0.0103439 -0.00483914 0.00956456 -0.0362411 -0.000483512 0.00821078 -0.0210129 -0.0104589 0.0039535 -0.0353587 -0.00740895 0.00471788 -0.023327 0.0036918 0.00677408 -0.00652766 -0.01632 -0.000190185 -0.0365132 -0.0288371 0.00940644 0.0223514 -0.0177429 0.00809409 0.0109291 -0.0252175 0.00384255 0.0267087 -0.0162385 0.00468047 0.0180624 -0.00719592 0.00671279 5.83777e-05 -0.0232355 -0.000244378 0.0323579 0.0402713 -1.40172 0.0950737 0.0288192 -1.34493 0.0686189 0.0132697 -1.39284 0.0338342 -0.00189612 -1.33331 0.000667845 0.0139725 -1.2823 0.0356416 -0.0154877 -1.38042 -0.0300623 -0.102534 -1.40136 -0.0129046 -0.07386 -1.34459 -0.00965452 -0.0359277 -1.39245 -0.00572423 0.000362111 -1.33297 -0.00232907 -0.0378729 -1.28198 -0.00606702 0.0337874 -1.38007 0.00123488 0.0624568 -1.40189 -0.0826653 0.0453259 -1.3451 -0.0593948 0.0229169 -1.39296 -0.0285617 0.00182056 -1.33346 0.00126879 0.024199 -1.28245 -0.0299732 -0.0179536 -1.38048 0.0283924 0.0652995 -1.39738 0.086772 0.0968775 -1.42289 0.127857 0.056256 -1.45674 0.0749709 0.0818812 -1.47786 0.109443 0.127186 -1.443 0.167457 0.0395592 -1.51058 0.0614609 -0.107843 -1.3974 0.0128747 -0.159124 -1.42289 0.0197996 -0.092938 -1.45697 0.0108951 -0.135596 -1.47788 0.0159981 -0.208609 -1.44295 0.0262235 -0.0728275 -1.51083 0.0034129 0.0427038 -1.39764 -0.0999927 0.0624962 -1.42314 -0.14788 0.03703 -1.45698 -0.0862592 0.0540575 -1.47811 -0.125697 0.0816204 -1.44325 -0.193932 0.0337033 -1.51083 -0.065069 0.133692 -1.46529 0.00475268 0.143292 -1.43426 0.00870819 0.151504 -1.41401 0.0042353 0.161416 -1.37787 0.00814901 0.154679 -1.401 0.014199 0.167475 -1.35684 0.00313689 -0.0623808 -1.46541 -0.118312 -0.0637051 -1.43453 -0.128659 -0.0717208 -1.41418 -0.13352 -0.0732391 -1.37809 -0.144103 -0.0646275 -1.40135 -0.141345 -0.080622 -1.35697 -0.146818 -0.0803373 -1.35694 0.146406 -0.0730372 -1.37795 0.143895 -0.0713822 -1.41437 0.132965 -0.0636488 -1.43473 0.128841 -0.0650611 -1.4015 0.142291 -0.0622938 -1.46569 0.1177 0.0426733 -0.00232849 0.00230233 0.0417585 -0.00206618 -0.00160936 0.0527705 -0.00941297 -0.000974311 0.0538525 -0.00832456 -0.00466552 0.0429131 -0.000814923 -0.00571426 0.059797 -0.0171094 -0.00370751 0.138149 -1.28609 -0.24113 0.121837 -1.36605 -0.211788 0.123027 -1.33567 -0.227024 0.106786 -1.40987 -0.196298 0.104773 -1.43661 -0.180736 0.107362 -1.3833 -0.211215 0.139817 -1.28586 0.239977 0.122574 -1.36584 0.211202 0.135159 -1.33544 0.219847 0.116676 -1.40966 0.190424 0.104244 -1.43636 0.180889 0.129293 -1.38307 0.198383 -0.27767 -1.28564 0.000906636 -0.244161 -1.36564 0.000411823 -0.257972 -1.33529 0.00692153 -0.22331 -1.4095 0.00568363 -0.208832 -1.43621 -0.000258703 -0.236473 -1.38297 0.012611 0.0409765 -1.51056 -0.0622365 0.0820107 -1.47785 -0.109788 0.0552331 -1.45865 -0.0733082 0.0951608 -1.42508 -0.125543 0.127187 -1.44305 -0.167576 0.0624568 -1.40189 -0.0826653 0.0335475 -1.51046 0.0662726 0.054117 -1.47772 0.125643 0.0358798 -1.45855 0.0840478 0.0611412 -1.42488 0.1449 0.0815578 -1.44288 0.193707 0.0402713 -1.40172 0.0950737 -0.0743218 -1.51035 -0.00423839 -0.13606 -1.47754 -0.016164 -0.0908407 -1.45826 -0.011202 -0.156175 -1.42461 -0.0197068 -0.208656 -1.44267 -0.0264143 -0.102534 -1.40136 -0.0129046 -0.0156329 -1.37712 -0.0250792 -0.0556306 -1.32461 -0.0828952 -0.023868 -1.30102 -0.038469 -0.0668 -1.24403 -0.103309 -0.102281 -1.26757 -0.15389 -0.0321809 -1.21805 -0.053192 0.0292034 -1.37724 -0.0013529 0.0994431 -1.32463 -0.00716767 0.0451077 -1.30107 -0.00179965 0.122778 -1.24406 -0.00662473 0.184295 -1.26759 -0.01211 0.0621001 -1.2181 -0.00166295 -0.0135938 -1.37749 0.0259724 -0.0436869 -1.32486 0.0896305 -0.0210532 -1.30129 0.0398433 -0.0558211 -1.24424 0.109502 -0.0818772 -1.26774 0.165433 -0.0297163 -1.2183 0.0544668 0.028183 -1.09603 0.0631344 0.053686 -1.11806 0.113378 0.0558262 -1.00563 0.11414 0.0832941 -1.02843 0.166553 0.078692 -1.13908 0.163305 0.0861649 -0.911894 0.167284 -0.0688143 -1.09571 -0.00750664 -0.125068 -1.11773 -0.0104972 -0.126784 -1.0053 -0.00905496 -0.185897 -1.0281 -0.0114247 -0.180805 -1.13875 -0.0137612 -0.187922 -0.911563 -0.00934933 0.0409063 -1.09614 -0.0560574 0.0716159 -1.11819 -0.103231 0.0712483 -1.00567 -0.105443 0.1028 -1.02854 -0.155305 0.102337 -1.13925 -0.149825 0.102089 -0.911961 -0.157797 -0.0542687 -0.0028212 0.0064991 -0.02761 0.00343158 0.00515984 -0.0354471 0.0038826 0.0104362 -0.0109835 0.00716975 0.00892477 -0.00409112 0.00574732 0.00393208 -0.0158024 0.0103297 0.0147488 7.37438e-20 4.78793e-19 4.65595e-19 3.37908e-19 -2.7282e-18 -3.15666e-19 -2.69892e-18 4.56373e-18 2.81988e-18 7.41474e-18 -3.71189e-18 4.10959e-18 -1.47693e-18 1.78314e-18 -8.42674e-19 0 3.16178e-18 -1.39692e-18 -0.0293074 -0.0186568 0.0428705 -0.038727 -0.0213339 0.0544197 -0.0321477 -0.0178332 0.0386713 -0.044738 -0.0269476 0.0524041 -0.0465413 -0.0269454 0.0624121 -0.035458 -0.0223003 0.0351468 -0.0358435 -0.0216389 -0.0349166 -0.0446413 -0.0265203 -0.0524137 -0.0324261 -0.0175675 -0.0383985 -0.0387475 -0.0210278 -0.0544431 -0.0465014 -0.02658 -0.0627541 -0.0290992 -0.0179967 -0.042651 -0.203389 -0.525988 -0.00409115 -0.158021 -0.445755 -0.00596081 -0.122458 -0.528189 -0.00866647 -0.0812262 -0.445703 -0.0117156 -0.114984 -0.368401 -0.00839002 -0.0434748 -0.530241 -0.0137882 -0.0230067 -0.0183175 -0.0467504 -0.0279304 -0.0217017 -0.0608661 -0.0174156 -0.0176364 -0.0474962 -0.0232505 -0.0270781 -0.0650712 -0.0307939 -0.0272708 -0.071885 -0.0128291 -0.0218809 -0.0485572 -0.23111 -0.698191 0.00493915 -0.20762 -0.803321 0.00718838 -0.160174 -0.698448 0.00683493 -0.138031 -0.804643 0.00779445 -0.181971 -0.908912 0.00899401 -0.0940319 -0.698689 0.00857401 0.111429 -0.698372 -0.203479 0.0976224 -0.803497 -0.183961 0.0741577 -0.698887 -0.142416 0.0620185 -0.805101 -0.12329 0.083367 -0.909367 -0.16237 0.0394649 -0.699313 -0.0856835 0.120125 -0.698199 0.197544 0.110298 -0.803292 0.176077 0.0863021 -0.698453 0.13514 0.0760493 -0.804606 0.115482 0.0990287 -0.908863 0.152962 0.0547469 -0.698682 0.0769466 -0.098842 -0.698648 -0.00883249 -0.143192 -0.806025 -0.00822356 -0.163297 -0.698437 -0.00729763 -0.211401 -0.804553 -0.00779708 -0.187922 -0.911563 -0.00934933 -0.232739 -0.698115 -0.0056633 0.0420803 -0.698926 0.0897355 0.0646964 -0.806288 0.127935 0.075616 -0.698678 0.1449 0.0991793 -0.804825 0.186818 0.0861649 -0.911894 0.167284 0.111689 -0.698354 0.204211 0.0573492 -0.699112 -0.0815386 0.079028 -0.806337 -0.120187 0.088068 -0.698938 -0.138026 0.112523 -0.804816 -0.17961 0.102089 -0.911961 -0.157797 0.121372 -0.698582 -0.199127 -0.047286 0.00366611 -0.0152611 -0.0370171 0.00260476 -0.00865916 -0.0699092 -0.00744783 -0.00879045 -0.015893 0.0103589 -0.0149365 -0.0556712 -0.00395492 -0.00310765 -0.0821122 -0.0091415 -0.0153623 1.06554e-18 3.50605e-19 -1.64905e-19 2.39436e-18 1.45583e-18 -8.08368e-20 -7.18094e-19 1.67843e-20 -7.49988e-19 -2.52211e-18 -5.52155e-18 -4.38385e-19 -3.75023e-19 1.20506e-17 -5.83515e-18 7.21315e-19 3.25471e-18 -1.49136e-18 5.84657e-18 -9.8661e-18 5.42455e-18 9.2736e-18 1.27625e-17 -3.53857e-18 -1.45995e-18 4.86003e-18 6.52597e-18 -4.44403e-18 -1.06124e-17 7.77012e-18 3.95039e-18 8.21678e-18 -2.2153e-18 -1.02237e-17 -8.7622e-18 -3.38871e-18 0.171353 -1.33764 0.013279 0.161416 -1.37787 0.00814901 0.154679 -1.401 0.014199 0.0936697 -1.39241 0.00755807 0.101896 -1.32616 0.00674169 0.176994 -1.31268 0.00769349 0.0337874 -1.38007 0.00123488 0.167475 -1.35684 0.00313689 0.184769 -1.26752 0.0113556 -0.0737551 -1.33795 -0.1553 -0.0732391 -1.37809 -0.144103 -0.0646275 -1.40135 -0.141345 -0.0399033 -1.39275 -0.0850898 -0.0447304 -1.32647 -0.0918315 -0.0814099 -1.31291 -0.157366 -0.0154877 -1.38042 -0.0300623 -0.080622 -1.35697 -0.146818 -0.0821249 -1.26782 -0.165946 -0.0129974 -0.0219499 0.0486121 -0.0236586 -0.027132 0.0651029 -0.017623 -0.0177519 0.0477208 -0.0282275 -0.0215732 0.0609412 -0.0310349 -0.0269577 0.071373 -0.0229552 -0.018801 0.0471849 -0.287914 -1.25867 -0.0128576 -0.283128 -1.27157 -0.00589645 -0.311551 -1.18275 -0.0093678 -0.307056 -1.19736 -0.00294963 -0.27767 -1.28564 0.000906636 -0.332613 -1.10224 -0.00587723 0.132933 -1.25892 0.255647 0.136601 -1.27178 0.248047 0.147795 -1.18298 0.274398 0.151128 -1.19754 0.267326 0.139817 -1.28586 0.239977 0.16136 -1.10244 0.290911 0.155196 -1.25912 -0.243009 0.146762 -1.272 -0.242378 0.163993 -1.18323 -0.265295 0.15619 -1.19777 -0.264645 0.138149 -1.28609 -0.24113 0.171494 -1.10275 -0.285363 -0.358208 -0.952712 0.0131071 -0.35705 -0.973942 0.00945682 -0.344839 -1.03593 0.0167431 -0.261337 -0.974335 0.0120173 -0.270384 -0.888318 0.00943301 -0.368115 -0.890613 0.00683219 -0.181971 -0.908912 0.00899401 -0.365676 -0.91282 0.00394015 -0.368271 -0.867783 0.0091762 0.168026 -0.953004 -0.316925 0.170559 -0.974306 -0.313969 0.158117 -1.03618 -0.307111 0.120421 -0.974643 -0.232483 0.127253 -0.888602 -0.239059 0.178363 -0.891002 -0.322301 0.083367 -0.909367 -0.16237 0.179467 -0.913185 -0.318349 0.176494 -0.867997 -0.323796 0.190647 -0.952675 0.303609 0.186901 -0.973958 0.304427 0.187098 -1.0359 0.290222 0.141298 -0.974298 0.220232 0.143593 -0.888279 0.229346 0.190171 -0.890628 0.31532 0.0990287 -0.908863 0.152962 0.186464 -0.912899 0.314678 0.192286 -0.867738 0.314285 -0.271967 -0.179436 -0.0129729 -0.285645 -0.201807 -0.0080839 -0.30522 -0.235785 -0.0119813 -0.222014 -0.232018 -0.00610089 -0.190584 -0.177233 -0.00679217 -0.25089 -0.150362 -0.00866675 -0.144956 -0.226489 0.000298482 -0.26383 -0.1686 -0.00422424 -0.235593 -0.130348 -0.0137759 0.0981958 -0.524452 0.177646 0.0738569 -0.443238 0.139099 0.0539839 -0.52754 0.109998 0.0306837 -0.444059 0.0755676 0.0502244 -0.365004 0.10287 0.0101285 -0.530576 0.0440401 0.0521001 -0.0186489 0.0041198 0.0668636 -0.0214163 0.00640662 0.0497803 -0.0179097 0.00869254 0.0679652 -0.0271037 0.0123375 0.077593 -0.0271321 0.00888332 0.0482941 -0.0223271 0.0131666 -0.357928 -0.368898 -0.00925069 -0.279067 -0.429815 -0.00255717 -0.284762 -0.350589 -0.00546334 -0.209805 -0.409997 0.00130115 -0.200579 -0.494731 0.00351701 -0.216467 -0.331773 -0.00130885 0.189159 -0.699917 0.329542 0.184302 -0.783322 0.328053 0.185814 -0.794101 0.327595 0.178116 -0.878395 0.322972 0.175681 -0.868427 0.323691 0.180285 -0.888633 0.320631 -0.379941 -0.699775 -0.00118637 -0.376229 -0.783107 -0.00460767 -0.376564 -0.793949 -0.00306906 -0.368734 -0.87816 -0.00740414 -0.368141 -0.868127 -0.00987291 -0.36777 -0.888457 -0.00436312 0.191316 -0.700042 -0.328724 0.192451 -0.783374 -0.323964 0.190866 -0.794272 -0.324184 0.190998 -0.878509 -0.31647 0.192751 -0.86842 -0.314416 0.187646 -0.888894 -0.316496 -0.0940319 -0.698689 0.00857401 -0.149152 -0.59378 0.00678567 -0.160174 -0.698448 0.00683493 -0.216607 -0.594912 0.00392135 -0.200579 -0.494731 0.00351701 -0.23111 -0.698191 0.00493915 0.105351 -0.524426 -0.174017 0.0840053 -0.442767 -0.133328 0.0687896 -0.527726 -0.1017 0.0508416 -0.443707 -0.0644346 0.0641975 -0.364723 -0.0946847 0.0336461 -0.531051 -0.0310418 0.132747 -0.18475 0.240586 0.149232 -0.238206 0.266939 0.137985 -0.210241 0.255837 0.153986 -0.267649 0.280812 0.163829 -0.297967 0.290391 0.142458 -0.235799 0.270011 0.0483988 -0.0219134 -0.0130199 0.0682392 -0.0271423 -0.0125026 0.0499511 -0.0177309 -0.00875671 0.0670024 -0.0217161 -0.00641923 0.0778243 -0.0271467 -0.00957949 0.0523426 -0.0185721 -0.00360046 0.151338 -0.512798 -0.0307916 0.0490235 -0.519172 -0.021516 0.0830651 -0.44187 -0.0280766 -0.00631705 -0.454066 -0.0184645 -0.0434748 -0.530241 -0.0137882 0.0273492 -0.37957 -0.0237359 -0.0639429 -0.0514657 -0.0614881 -0.0503674 -0.0351694 -0.0491158 -0.0609671 -0.0476472 -0.0488905 -0.0425527 -0.032247 -0.0342262 -0.0358435 -0.0216389 -0.0349166 -0.0489761 -0.0295607 -0.0288783 -0.000467149 -0.0298847 -0.0567797 -0.00851941 -0.0322411 -0.054049 -0.0116282 -0.0481629 -0.0772509 -0.0173577 -0.0352784 -0.0680343 -0.0128291 -0.0218809 -0.0485572 -0.0207397 -0.0517927 -0.0856935 -0.0486395 -0.0308882 0.0297015 -0.0422178 -0.0312191 0.0336383 -0.0605988 -0.0473957 0.0483171 -0.0500296 -0.0358994 0.049194 -0.035458 -0.0223003 0.0351468 -0.0636066 -0.0517779 0.0614179 0.0394649 -0.699313 -0.0856835 0.0681453 -0.593035 -0.132014 0.0741577 -0.698887 -0.142416 0.104521 -0.594016 -0.189316 0.0964437 -0.493613 -0.173938 0.111429 -0.698372 -0.203479 0.0547469 -0.698682 0.0769466 0.0803454 -0.593017 0.124749 0.0863021 -0.698453 0.13514 0.111548 -0.594133 0.184575 0.10285 -0.493124 0.169992 0.120125 -0.698199 0.197544 0.0820468 -1.47868 0.161924 0.0762897 -1.51274 0.140772 0.0934664 -1.45743 0.172552 0.0863886 -1.49406 0.149993 0.0680734 -1.54438 0.117524 0.104244 -1.43636 0.180889 -0.181361 -1.4785 -0.0101581 -0.160271 -1.51245 -0.0044907 -0.196314 -1.4573 -0.00549013 -0.173225 -1.49384 -0.000274121 -0.135812 -1.54401 7.91975e-05 -0.208832 -1.43621 -0.000258703 0.0992052 -1.47884 -0.151923 0.083934 -1.51299 -0.136412 0.10288 -1.45766 -0.167225 0.0868986 -1.49431 -0.149786 0.0679124 -1.54451 -0.117703 0.104773 -1.43661 -0.180736 0.0279667 -0.00912492 -0.0786736 0.045547 -0.0237907 -0.0959446 0.0250776 -0.00606707 -0.0645661 0.0407676 -0.0167941 -0.079904 0.0215153 -0.00276147 -0.050336 0.061002 -0.0371093 -0.111342 0.0247497 -0.0525238 -0.00397989 0.0536769 -0.0788897 -0.014133 0.00514035 -0.081038 -0.00603937 0.0636875 -0.053375 -0.0109831 0.0846905 -0.0742439 -0.0218126 0.0397237 -0.0314585 -0.00134241 -0.0354199 -0.0153259 0.0589002 -0.0291731 -0.0174247 0.0484692 -0.0333848 -0.00408426 0.0427516 -0.0239379 -0.00394877 0.025984 -0.0194103 -0.023547 0.0305889 -0.0288371 0.00940644 0.0223514 0.104244 -1.43636 0.180889 0.0863886 -1.49406 0.149993 0.102866 -1.45736 0.167321 0.0832926 -1.51198 0.136084 0.0680734 -1.54438 0.117524 0.0997729 -1.47868 0.151526 -0.208832 -1.43621 -0.000258703 -0.173225 -1.49384 -0.000274121 -0.196561 -1.45736 0.00529679 -0.159825 -1.51182 0.00398497 -0.135812 -1.54401 7.91975e-05 -0.181329 -1.47867 0.0105396 0.104773 -1.43661 -0.180736 0.0868986 -1.49431 -0.149786 0.0936673 -1.45756 -0.172778 0.0763622 -1.51218 -0.140212 0.0679124 -1.54451 -0.117703 0.0815335 -1.4789 -0.162239 0.0621001 -1.2181 -0.00166295 0.0306397 -1.14158 0.00155286 -0.00764464 -1.23729 0.00312536 -0.0416858 -1.16101 0.00574641 -0.00463442 -1.0605 0.00438755 -0.0736484 -1.25487 0.00817685 -0.00146202 -1.06072 -0.00626324 0.0158669 -1.16126 -0.0390883 -0.0167241 -1.14179 0.0256101 0.00107582 -1.23749 -0.00828308 0.0297713 -1.25511 -0.0679968 -0.0297163 -1.2183 0.0544668 -0.0321809 -1.21805 -0.053192 -0.0136539 -1.14153 -0.0275203 0.00679873 -1.23723 0.00485854 0.0260967 -1.16095 0.0330529 0.006439 -1.06043 0.00163067 0.044143 -1.25483 0.059537 -0.0354029 -0.376869 0.0141771 -0.0146663 -0.45423 -0.0115289 -0.0660862 -0.43993 0.0582301 -0.0434367 -0.521442 0.033664 0.00855296 -0.534837 -0.0420432 -0.101857 -0.513389 0.115757 0.00606647 -0.376811 -0.039438 0.0175181 -0.45464 -0.00751984 -0.0170113 -0.439992 -0.0866388 -0.00643639 -0.521476 -0.0544216 0.0319818 -0.535086 0.0276363 -0.0492495 -0.514058 -0.146612 -0.100215 -1.18924 -0.168879 -0.0973707 -1.19279 -0.170272 -0.101365 -1.12856 -0.175421 -0.0989483 -1.13399 -0.176317 -0.0941233 -1.1987 -0.171346 -0.1025 -1.06657 -0.179811 0.206967 -1.06641 0.000627093 0.202581 -1.12845 -0.000560906 0.202167 -1.13381 0.0019697 0.196136 -1.19266 0.00033414 0.196317 -1.18916 -0.00281007 0.195452 -1.19851 0.00367347 0.0409063 -1.09614 -0.0560574 0.0191273 -1.02133 -0.0207722 0.00843981 -1.14327 -0.00606807 -0.014346 -1.06985 0.0311592 -0.0031564 -0.943971 0.0168909 -0.0236803 -1.18824 0.0415667 0.028183 -1.09603 0.0631344 0.00853157 -1.02121 0.0265368 0.0011768 -1.14314 0.0101076 -0.0195907 -1.06971 -0.0280778 -0.0128835 -0.943833 -0.0115072 -0.0240519 -1.18819 -0.0414733 -0.0688143 -1.09571 -0.00750664 -0.0273222 -1.0209 -0.00626137 -0.00938706 -1.14283 -0.00441112 0.0340467 -1.06942 -0.00334096 0.0162657 -0.943552 -0.00580863 0.047913 -1.18789 -0.000496739 0.0543789 -0.00912371 -0.0635253 0.0420579 -0.00696909 -0.0552116 0.060744 -0.0214087 -0.0837342 0.0476567 -0.0154435 -0.072696 0.0669551 -0.0336522 -0.102629 0.029623 -0.00320624 -0.0448727 2.88295e-20 -4.51674e-18 -1.78194e-18 -1.39461e-18 -8.2017e-19 -2.0424e-18 -1.80044e-18 -2.22727e-18 1.8582e-19 2.03373e-18 -1.0042e-18 3.19849e-18 -4.9125e-18 -5.50426e-19 -1.44176e-18 -3.18406e-19 1.06521e-18 -3.70227e-20 5.35545e-19 6.38105e-18 4.29472e-19 -4.64982e-18 1.33175e-17 5.23388e-18 2.48247e-18 -9.66516e-18 1.09387e-18 -1.72362e-19 4.96096e-19 -2.96289e-18 -2.83328e-18 2.14343e-18 1.30416e-18 1.69863e-18 -2.49677e-18 -1.59777e-18 0.139848 -1.453 -0.000386754 0.154198 -1.40727 0.00129698 0.153613 -1.40842 -0.00298961 0.16742 -1.35695 -0.00121409 0.167475 -1.35684 0.00313689 0.165989 -1.35979 -0.00571092 -0.080622 -1.35697 -0.146818 -0.0843982 -1.35705 -0.144628 -0.0756009 -1.40741 -0.134406 -0.0790043 -1.40853 -0.131767 -0.0876177 -1.35989 -0.141181 -0.0698818 -1.45317 -0.121122 -0.0398303 -0.534817 0.0134729 -0.0655098 -0.441904 0.0124112 -0.119849 -0.514354 0.00857307 -0.14178 -0.425394 0.00640611 -0.0869694 -0.357514 0.0103439 -0.200579 -0.494731 0.00351701 -0.387791 -0.519345 0.00174764 -0.387529 -0.522981 0.00316699 -0.38946 -0.602626 0.000686442 -0.388407 -0.607022 0.00132934 -0.384751 -0.524929 0.00471401 -0.379941 -0.699775 -0.00118637 0.192654 -0.519586 -0.33715 0.191192 -0.523204 -0.337585 0.194467 -0.602815 -0.337968 0.193293 -0.607244 -0.33738 0.188403 -0.525138 -0.335917 0.191316 -0.700042 -0.328724 -0.144956 -0.226489 0.000298482 -0.116414 -0.171829 -0.000238181 -0.190584 -0.177233 -0.00679217 -0.159261 -0.128132 -0.00773175 -0.0898335 -0.124382 -0.00120454 -0.235593 -0.130348 -0.0137759 -0.374973 -0.444384 0.00688376 -0.290528 -0.525523 0.000257629 -0.384751 -0.524929 0.00471401 -0.387529 -0.522981 0.00316699 -0.376538 -0.443856 0.00469229 -0.281302 -0.444412 0.001981 -0.387791 -0.519345 0.00174764 -0.203389 -0.525988 -0.00409115 -0.357673 -0.368842 0.00878171 0.181622 -0.444494 -0.328572 0.14505 -0.524857 -0.251807 0.188403 -0.525138 -0.335917 0.191192 -0.523204 -0.337585 0.184339 -0.443989 -0.328823 0.138963 -0.443652 -0.244706 0.192654 -0.519586 -0.33715 0.105351 -0.524426 -0.174017 0.171344 -0.368869 -0.314476 0.134046 -1.19373 0.279247 0.133601 -1.22661 0.268363 0.148766 -1.14729 0.285746 0.147795 -1.18298 0.274398 0.132933 -1.25892 0.255647 0.16136 -1.10244 0.290911 -0.308906 -1.1934 -0.0236858 -0.29926 -1.22632 -0.0186322 -0.321868 -1.14702 -0.0141997 -0.311551 -1.18275 -0.0093678 -0.287914 -1.25867 -0.0128576 -0.332613 -1.10224 -0.00587723 0.175096 -1.19394 -0.255779 0.165891 -1.22682 -0.249954 0.173351 -1.14752 -0.271809 0.163993 -1.18323 -0.265295 0.155196 -1.25912 -0.243009 0.171494 -1.10275 -0.285363 0.029623 -0.00320624 -0.0448727 0.0448077 -0.0170402 -0.0771908 0.0476567 -0.0154435 -0.072696 0.0643144 -0.0362315 -0.107712 0.061002 -0.0371093 -0.111342 0.0669551 -0.0336522 -0.102629 -2.88634e-18 1.95125e-18 1.52896e-18 1.88273e-18 1.60204e-18 -6.35447e-18 1.93564e-18 -2.09304e-18 8.95715e-19 -7.85666e-19 -2.81323e-18 4.48159e-18 1.32948e-18 -1.71888e-18 1.09629e-18 7.37438e-20 4.78793e-19 4.65595e-19 0.0224696 -0.376068 0.0225068 -0.0066545 -0.453772 0.0179116 0.0787605 -0.439088 0.0274261 0.0502892 -0.521505 0.021073 -0.0398303 -0.534817 0.0134729 0.151417 -0.514019 0.0300228 -1.65759e-18 -4.01616e-19 3.01977e-18 1.54709e-18 -1.90051e-17 -3.01493e-18 -2.39286e-19 8.073e-18 -7.15382e-18 1.3429e-18 5.9096e-18 -1.40364e-18 -6.55015e-18 4.64091e-18 5.19029e-18 -2.77522e-18 3.5221e-18 6.69193e-18 0.012169 -0.0513772 -0.00257353 0.0321144 -0.0481799 0.00195014 0.0334638 -0.0499438 0.000373347 0.0479213 -0.043138 0.00463137 0.0503924 -0.0418478 0.00666266 0.0465129 -0.0441066 0.00246563 -0.101983 -0.51295 -0.115982 -0.0426527 -0.519351 -0.0319241 -0.0653824 -0.440025 -0.0578006 -0.0125022 -0.452353 0.0142997 0.0101285 -0.530576 0.0440401 -0.0338491 -0.37596 -0.0118122 -0.0493404 -0.513842 0.146222 -0.00558175 -0.519466 0.052217 -0.0164588 -0.439377 0.0848812 0.0190405 -0.452295 0.0041134 0.0336461 -0.531051 -0.0310418 0.00683261 -0.375724 0.0355313 0.0501655 -0.0316033 0.0272973 0.0502335 -0.0308846 0.0197981 0.0727019 -0.0476701 0.0284177 0.0681052 -0.0359946 0.0186531 0.0482941 -0.0223271 0.0131666 0.0856529 -0.0520255 0.0245769 0.0852405 -0.0525918 -0.0248128 0.068089 -0.0356864 -0.0189537 0.0730575 -0.0483905 -0.0285315 0.0510635 -0.0323565 -0.0196132 0.0483988 -0.0219134 -0.0130199 0.0495766 -0.0299276 -0.0281016 -0.0272857 -0.00397935 -0.0390509 -0.0213964 -0.00250662 -0.036974 -0.0193759 0.00235449 -0.0258866 -0.0127331 0.0031477 -0.0229743 -0.01632 -0.000190185 -0.0365132 -0.00881251 0.00562397 -0.00831861 0.193746 -0.444529 0.321194 0.145629 -0.524841 0.251114 0.196724 -0.525108 0.330763 0.196681 -0.519428 0.333644 0.1923 -0.440543 0.323022 0.142561 -0.443726 0.24223 0.195333 -0.512039 0.334106 0.0981958 -0.524452 0.177646 0.186764 -0.368938 0.305239 -0.0199387 -0.00386028 0.0430998 -0.0210482 -0.00247737 0.037014 -0.012431 0.00247935 0.0296874 -0.0132241 0.00322928 0.0224776 -0.0232355 -0.000244378 0.0323579 -0.00240778 0.00572766 0.011715 -0.0736954 -1.33801 0.155474 -0.0810803 -1.31283 0.157071 -0.0818772 -1.26774 0.165433 -0.0436869 -1.32486 0.0896305 -0.0390896 -1.39142 0.0831689 -0.0730372 -1.37795 0.143895 -0.0135938 -1.37749 0.0259724 -0.0803373 -1.35694 0.146406 -0.0650611 -1.4015 0.142291 -0.0941233 -1.1987 -0.171346 -0.0953264 -1.14965 -0.175674 -0.0989483 -1.13399 -0.176317 -0.100008 -1.08202 -0.179229 -0.0964865 -1.09923 -0.177396 -0.1025 -1.06657 -0.179811 0.206967 -1.06641 0.000627093 0.202167 -1.13381 0.0019697 0.205219 -1.08179 0.00249702 0.199792 -1.14941 0.00478469 0.195452 -1.19851 0.00367347 0.201852 -1.09893 0.0046337 -1.02237e-17 -8.7622e-18 -3.38871e-18 -4.14046e-18 -8.19309e-18 -5.95486e-19 2.9788e-18 6.74053e-18 -2.44961e-18 -2.11316e-19 -1.00163e-17 -2.15831e-18 -2.81504e-18 4.67621e-18 1.10142e-18 2.47439e-18 -3.07137e-18 -2.18657e-19 7.21315e-19 3.25471e-18 -1.49136e-18 -9.76386e-19 1.88432e-18 1.23102e-20 6.75565e-19 2.91241e-19 -1.23245e-18 4.52645e-19 -7.60763e-19 5.6589e-19 -8.37236e-19 2.26806e-18 -1.61627e-19 7.93926e-20 3.41236e-18 -4.5788e-19 -0.103744 -1.06626 0.1787 -0.101055 -1.11512 0.176546 -0.101641 -1.14673 0.172979 -0.0975079 -1.1928 0.169866 -0.0969307 -1.16378 0.1737 -0.0982486 -1.22307 0.164907 0.0623818 -0.0344464 0.00824456 0.0649355 -0.0252141 0.00264163 0.0680301 -0.0252122 0.00961192 0.05842 -0.0356354 0.00565159 0.0479213 -0.043138 0.00463137 0.052539 -0.028614 0.00146323 0.0465129 -0.0441066 0.00246563 0.0523426 -0.0185721 -0.00360046 0.0503924 -0.0418478 0.00666266 -0.0416525 -0.00515915 0.0479759 -0.0360814 -0.0141724 0.0492441 -0.0436061 -0.0148593 0.0535052 -0.0385501 -0.00838557 0.0530749 -0.0404668 -0.0145635 0.0587225 -0.036588 -0.0238304 0.0514817 -0.0423399 -0.024894 0.053987 -0.0323277 -0.0216155 0.0510625 -0.0354199 -0.0153259 0.0589002 -0.018568 -0.0241922 -0.0302508 -0.0288247 -0.0178128 -0.0484612 -0.0235683 -0.00425411 -0.0259067 -0.0331656 -0.00426922 -0.0427484 -0.0353187 -0.0154749 -0.0590814 -0.0286301 0.00924407 -0.0224986 -0.0385909 -0.102065 -0.00271422 -0.0356169 -0.169531 -0.00970469 -0.0903008 -0.126202 0.000756184 0.0112174 -0.139308 -0.0141084 0.0196252 -0.215548 -0.0215623 0.00514035 -0.081038 -0.00603937 -0.0216033 -0.0514727 0.0855999 -0.0178481 -0.0352362 0.0683785 -0.0122158 -0.0482706 0.0774888 -0.00848591 -0.0322872 0.0540673 -0.0129974 -0.0219499 0.0486121 -0.000464858 -0.029885 0.0569314 -3.18406e-19 1.06521e-18 -3.70227e-20 -1.64262e-17 -1.08027e-17 -1.81147e-18 2.03373e-18 -1.0042e-18 3.19849e-18 2.16402e-18 5.11534e-18 -6.62957e-19 -2.81504e-18 4.67621e-18 1.10142e-18 -4.9125e-18 -5.50426e-19 -1.44176e-18 1.69863e-18 -2.49677e-18 -1.59777e-18 -1.70832e-18 -2.14063e-18 2.16326e-18 -1.72362e-19 4.96096e-19 -2.96289e-18 1.57515e-18 1.70794e-18 -4.37678e-19 -8.37236e-19 2.26806e-18 -1.61627e-19 -2.83328e-18 2.14343e-18 1.30416e-18 -0.0940319 -0.698689 0.00857401 -0.138031 -0.804643 0.00779445 -0.05553 -0.782385 0.00849466 -0.0989447 -0.887877 0.00781207 -0.181971 -0.908912 0.00899401 -0.0159238 -0.866582 0.00716743 0.0394649 -0.699313 -0.0856835 0.0620185 -0.805101 -0.12329 0.0203216 -0.782838 -0.0521764 0.0427598 -0.888161 -0.0895879 0.083367 -0.909367 -0.16237 0.00156626 -0.866819 -0.0169324 0.0547469 -0.698682 0.0769466 0.0760493 -0.804606 0.115482 0.0354406 -0.782318 0.0436383 0.0565248 -0.887825 0.081612 0.0990287 -0.908863 0.152962 0.0145062 -0.866484 0.0100045 0.00855296 -0.534837 -0.0420432 0.0522591 -0.513748 -0.107575 0.0242581 -0.616682 -0.0631876 0.0681453 -0.593035 -0.132014 0.0964437 -0.493613 -0.173938 0.0394649 -0.699313 -0.0856835 0.0319818 -0.535086 0.0276363 0.0673708 -0.513584 0.098514 0.0427486 -0.616626 0.052309 0.0803454 -0.593017 0.124749 0.10285 -0.493124 0.169992 0.0547469 -0.698682 0.0769466 0.0544153 -0.00902961 0.0632228 0.0608051 -0.0233062 0.086386 0.0436481 -0.00599359 0.0536925 0.0493223 -0.0165213 0.0743151 0.0330669 -0.0027108 0.0434901 0.0667101 -0.0366985 0.107133 -0.0903008 -0.126202 0.000756184 -0.12912 -0.176578 0.000808423 -0.159467 -0.129141 0.0073603 -0.204311 -0.180731 0.00736827 -0.171878 -0.234754 0.00126141 -0.235488 -0.130443 0.0134219 -0.0178093 -0.0252351 0.0323559 -0.0278473 -0.0182984 0.0496251 -0.0108862 -0.00463567 0.0338147 -0.0202178 -0.00420686 0.0500418 -0.0333323 -0.0155779 0.060098 -0.00486081 0.00943233 0.0359111 -0.0333285 -0.0155542 -0.0603166 -0.0278353 -0.0182235 -0.0498633 -0.0203055 -0.00411116 -0.0503296 -0.010942 -0.00453022 -0.0340818 -0.0178786 -0.0251175 -0.0326548 -0.00483914 0.00956456 -0.0362411 4.90578e-18 1.56554e-17 1.2481e-18 -0.015107 -0.0134398 0.020097 -3.61214e-19 4.1146e-18 -2.88557e-18 2.60561e-18 1.01285e-18 -1.09597e-17 -2.52211e-18 -5.52155e-18 -4.38385e-19 -0.0175761 -0.010718 0.0163897 7.21315e-19 3.25471e-18 -1.49136e-18 -0.0356304 -0.0398067 0.0397554 -3.75023e-19 1.20506e-17 -5.83515e-18 -8.56936e-18 -1.15231e-17 -1.25953e-17 0.0241566 -0.0130978 0.00250777 -7.44695e-18 -2.47035e-18 2.23232e-18 1.76125e-17 9.33192e-18 9.23648e-18 -4.44403e-18 -1.06124e-17 7.77012e-18 0.0225396 -0.0107796 0.0066712 -1.02237e-17 -8.7622e-18 -3.38871e-18 0.0513822 -0.0398946 0.0105551 3.95039e-18 8.21678e-18 -2.2153e-18 1.3429e-18 5.9096e-18 -1.40364e-18 -1.69794e-18 -1.42035e-18 1.87763e-18 1.54709e-18 -1.90051e-17 -3.01493e-18 -1.03531e-18 -3.38456e-18 -4.00023e-18 1.32948e-18 -1.71888e-18 1.09629e-18 -6.55015e-18 4.64091e-18 5.19029e-18 -0.0207397 -0.0517927 -0.0856935 -0.02571 -0.063838 -0.0942972 -0.015617 -0.0683962 -0.0981328 -0.0214295 -0.0888196 -0.105413 -0.0245179 -0.0726853 -0.0879502 -0.00937919 -0.0976522 -0.107516 -0.0636066 -0.0517779 0.0614179 -0.0683492 -0.0637441 0.0693452 -0.0768051 -0.0683701 0.0624028 -0.0800823 -0.0886658 0.070913 -0.063064 -0.0727459 0.0648133 -0.0881072 -0.0973243 0.0613144 -0.0398303 -0.534817 0.0134729 -0.119849 -0.514354 0.00857307 -0.066688 -0.616572 0.0104903 -0.149152 -0.59378 0.00678567 -0.200579 -0.494731 0.00351701 -0.0940319 -0.698689 0.00857401 0.0036918 0.00677408 -0.00652766 -0.00213452 0.00553521 -0.00648205 -0.00740895 0.00471788 -0.023327 -0.0127331 0.0031477 -0.0229743 -0.00881251 0.00562397 -0.00831861 -0.01632 -0.000190185 -0.0365132 -0.0633441 -0.0724509 -0.0650466 -0.0684545 -0.0635942 -0.0693954 -0.0804774 -0.0888836 -0.0713266 -0.0769048 -0.0679099 -0.0628064 -0.0639429 -0.0514657 -0.0614881 -0.0883076 -0.096866 -0.0616263 0.155144 -1.27389 0.236959 0.165428 -1.19542 0.26018 0.147398 -1.27908 0.238617 0.158405 -1.2018 0.261744 0.174029 -1.1118 0.280975 0.139817 -1.28586 0.239977 -0.282732 -1.27382 0.0157456 -0.307993 -1.19537 0.0130257 -0.280294 -1.27893 0.0081871 -0.305844 -1.20169 0.00614694 -0.330311 -1.11175 0.0100614 -0.27767 -1.28564 0.000906636 0.127861 -1.27415 -0.252882 0.142861 -1.19568 -0.273374 0.133174 -1.27932 -0.247012 0.147734 -1.20204 -0.2681 0.156601 -1.11206 -0.291172 0.138149 -1.28609 -0.24113 0.0273492 -0.37957 -0.0237359 0.0217547 -0.290371 -0.0234573 0.0858312 -0.35736 -0.0338558 0.071234 -0.267134 -0.032816 0.0196252 -0.215548 -0.0215623 0.13156 -0.337695 -0.0436063 0.0337874 -1.38007 0.00123488 0.0936697 -1.39241 0.00755807 0.0422695 -1.45126 0.00287932 0.0924952 -1.45992 0.00790115 0.154679 -1.401 0.014199 0.0421656 -1.51388 0.000397838 -0.0179536 -1.38048 0.0283924 -0.0534077 -1.39284 0.0771367 -0.0236714 -1.45162 0.0349702 -0.0531083 -1.46027 0.0758557 -0.0897514 -1.40147 0.126755 -0.0213488 -1.51429 0.0358939 -0.0154877 -1.38042 -0.0300623 -0.0399033 -1.39275 -0.0850898 -0.0183254 -1.45169 -0.038165 -0.0390167 -1.46022 -0.0842442 -0.0646275 -1.40135 -0.141345 -0.0202613 -1.51422 -0.0367435 0.0200185 -0.214991 0.0209967 0.0203445 -0.289314 0.0225018 0.071456 -0.267501 0.0323833 0.0825028 -0.35493 0.0329733 0.0224696 -0.376068 0.0225068 0.130673 -0.337268 0.0428268 -0.103895 -0.942806 -0.181776 -0.104216 -1.00506 -0.181183 -0.104484 -0.918636 -0.181196 -0.104502 -0.982065 -0.181355 -0.1025 -1.06657 -0.179811 -0.105521 -0.895143 -0.179765 0.20935 -0.942767 0.000386343 0.209 -1.00496 -0.000181017 0.209132 -0.918529 -0.000420994 0.209311 -0.981883 -0.000354595 0.206967 -1.06641 0.000627093 0.208456 -0.89494 -0.00205003 -0.00719592 0.00671279 5.83777e-05 -0.00418095 0.00555591 0.00505979 -0.0162385 0.00468047 0.0180624 -0.0132241 0.00322928 0.0224776 -0.00240778 0.00572766 0.011715 -0.0232355 -0.000244378 0.0323579 0.190661 -0.70091 -0.329884 0.187017 -0.806462 -0.326154 0.189939 -0.700626 -0.329805 0.185243 -0.806218 -0.326275 0.179467 -0.913185 -0.318349 0.189014 -0.699887 -0.329333 -0.380427 -0.700613 -0.000356088 -0.375944 -0.806538 0.000977135 -0.38027 -0.700376 0.000201655 -0.375013 -0.806141 0.00257881 -0.365676 -0.91282 0.00394015 -0.379869 -0.699759 0.000851586 0.19011 -0.700659 0.329546 0.189031 -0.806577 0.325025 0.190526 -0.700403 0.329113 0.189938 -0.806139 0.32338 0.186464 -0.912899 0.314678 0.190899 -0.699793 0.328428 0.103274 -0.107407 -0.186865 0.100975 -0.0955298 -0.174331 0.0820425 -0.0675129 -0.149029 0.0797445 -0.0582091 -0.136232 0.098177 -0.0827852 -0.160702 0.061002 -0.0371093 -0.111342 0.0667101 -0.0366985 0.107133 0.0451761 -0.0170463 0.0767307 0.0493223 -0.0165213 0.0743151 0.0291846 -0.00385552 0.046514 0.0245693 -0.00335154 0.0479765 0.0330669 -0.0027108 0.0434901 0.061002 -0.0371093 -0.111342 0.0448077 -0.0170402 -0.0771908 0.0407676 -0.0167941 -0.079904 0.0260976 -0.00381195 -0.0483443 0.029623 -0.00320624 -0.0448727 0.0215153 -0.00276147 -0.050336 -0.334073 -0.299095 0.0104131 -0.331077 -0.292791 0.00693485 -0.305143 -0.235815 0.0116856 -0.236448 -0.235883 0.00664246 -0.2599 -0.299743 0.00538899 -0.355509 -0.360685 0.00588604 -0.171878 -0.234754 0.00126141 -0.352619 -0.350746 0.00316106 -0.357673 -0.368842 0.00878171 0.0319818 -0.535086 0.0276363 0.0447419 -0.437048 0.0520605 0.0673708 -0.513584 0.098514 0.0771344 -0.419799 0.120022 0.0540095 -0.348639 0.0729358 0.10285 -0.493124 0.169992 -0.0207111 -0.00503868 -0.0600774 -0.0246602 -0.0139309 -0.0558622 -0.024566 -0.0147656 -0.0646625 -0.0267217 -0.00836467 -0.0599837 -0.0307169 -0.0145731 -0.0645988 -0.026316 -0.0236409 -0.0574264 -0.0256886 -0.0248278 -0.0640504 -0.0279873 -0.0209707 -0.0521646 -0.0333285 -0.0155542 -0.0603166 1.09786e-18 -1.86749e-18 6.80165e-19 2.30349e-18 -1.00214e-18 4.30733e-18 -1.03181e-17 1.00378e-17 -4.89407e-18 1.93564e-18 -2.09304e-18 8.95715e-19 7.37438e-20 4.78793e-19 4.65595e-19 -2.88634e-18 1.95125e-18 1.52896e-18 -0.0321809 -1.21805 -0.053192 -0.0670184 -1.15976 -0.108669 -0.0136539 -1.14153 -0.0275203 -0.046971 -1.08099 -0.0817624 -0.105371 -1.0988 -0.172608 0.006439 -1.06043 0.00163067 -0.0965052 -1.09908 0.177532 -0.046989 -1.08126 0.081595 -0.0603474 -1.16003 0.112396 -0.0167241 -1.14179 0.0256101 -0.00146202 -1.06072 -0.00626324 -0.0297163 -1.2183 0.0544668 0.0621001 -1.2181 -0.00166295 0.127572 -1.1598 -0.00414706 0.0306397 -1.14158 0.00155286 0.0942763 -1.08106 -0.000234732 0.202121 -1.09885 -0.00544711 -0.00463442 -1.0605 0.00438755 7.74628e-18 7.60066e-18 -1.75293e-17 -0.010012 -0.0127522 -0.0215386 -3.11921e-19 3.64568e-19 4.08314e-18 3.67865e-18 -2.29953e-18 3.95781e-18 -3.13672e-18 -6.5616e-18 1.49058e-18 -0.00541173 -0.0105922 -0.0230546 1.3429e-18 5.9096e-18 -1.40364e-18 -0.0175021 -0.0397021 -0.0515336 9.12244e-18 9.64819e-19 -7.98369e-18 -0.0242097 -0.0341565 -0.0577788 -0.0301003 -0.0247136 -0.0570884 -0.0256886 -0.0248278 -0.0640504 -0.0250653 -0.035497 -0.0539303 -0.0208045 -0.0429979 -0.043744 -0.0248982 -0.0280612 -0.0454504 -0.0230132 -0.0439088 -0.0430342 -0.0290992 -0.0179967 -0.042651 -0.0196346 -0.0416264 -0.0462324 -0.0380099 -0.0341931 0.0497721 -0.034473 -0.0251299 0.0547233 -0.0423399 -0.024894 0.053987 -0.0337073 -0.0352212 0.0479099 -0.0277021 -0.0427088 0.0395648 -0.0273552 -0.0285676 0.0446699 -0.0248316 -0.0430743 0.039795 -0.0229552 -0.018801 0.0471849 -0.0306155 -0.041659 0.0402456 0.0281026 -0.00924766 0.0785317 0.0271967 -0.00713396 0.0638495 0.0432443 -0.0223619 0.0955741 0.0403284 -0.0163171 0.0787934 0.0573454 -0.0357714 0.111868 0.0245693 -0.00335154 0.0479765 0.0101303 0.00586068 -0.00469203 0.00245171 0.00541589 -0.000425094 -0.0198239 0.00429126 -0.00391838 -0.0287958 0.00248416 0.000450732 -0.00409112 0.00574732 0.00393208 -0.0556712 -0.00395492 -0.00310765 -0.232739 -0.698115 -0.0056633 -0.309378 -0.608759 -0.00114134 -0.218716 -0.610973 -0.00469367 -0.290528 -0.525523 0.000257629 -0.384751 -0.524929 0.00471401 -0.203389 -0.525988 -0.00409115 0.138149 -1.28609 -0.24113 0.134482 -1.3352 -0.220451 0.121837 -1.36605 -0.211788 0.116788 -1.40986 -0.1899 0.129399 -1.38315 -0.197791 0.104773 -1.43661 -0.180736 -0.27767 -1.28564 0.000906636 -0.258058 -1.3348 -0.00621484 -0.244161 -1.36564 0.000411823 -0.222853 -1.40943 -0.0061319 -0.235958 -1.38268 -0.0130848 -0.208832 -1.43621 -0.000258703 0.139817 -1.28586 0.239977 0.123764 -1.335 0.226452 0.122574 -1.36584 0.211202 0.106142 -1.40959 0.19587 0.106676 -1.38288 0.210644 0.104244 -1.43636 0.180889 -0.0896806 -0.708577 0.171644 -0.06942 -0.607996 0.154284 -0.0739203 -0.603574 0.149394 -0.0585873 -0.51326 0.142944 -0.0493404 -0.513842 0.146222 -0.0651009 -0.508854 0.136608 0.0461011 -0.0317345 -0.0110111 0.0462066 -0.0276846 -0.0193543 0.0195471 -0.0083061 -0.00656078 0.0194241 -0.00719558 -0.0105118 0.0495766 -0.0299276 -0.0281016 -7.77906e-19 -4.88495e-18 1.10638e-18 -3.51364e-18 9.71414e-18 2.24184e-18 -0.015895 -0.0306041 0.0298652 -0.0169079 -0.0108559 0.0248041 -0.0249129 -0.0283491 0.0456044 -0.019548 -0.0414726 0.0464908 -0.0293074 -0.0186568 0.0428705 -0.0290992 -0.0179967 -0.042651 -0.0248982 -0.0280612 -0.0454504 -0.0168611 -0.0105554 -0.0244627 -0.0159745 -0.0304267 -0.0292994 -0.0196346 -0.0416264 -0.0462324 3.71332e-18 9.34817e-18 7.1782e-18 -2.40809e-19 -7.82435e-18 3.43991e-18 -0.0181509 -0.0311124 -0.0287371 -0.0132861 -0.0107297 -0.0269749 -0.0274493 -0.028753 -0.0445397 -0.0309575 -0.0423181 -0.0403624 -0.0230067 -0.0183175 -0.0467504 0.195333 -0.512039 0.334106 0.196681 -0.519428 0.333644 0.195673 -0.598568 0.33688 0.195592 -0.607197 0.335626 0.196724 -0.525108 0.330763 0.189159 -0.699917 0.329542 2.86869e-18 -4.75085e-18 3.70439e-18 6.75565e-19 2.91241e-19 -1.23245e-18 -2.27567e-18 1.97503e-18 -4.01176e-18 7.21315e-19 3.25471e-18 -1.49136e-18 7.93926e-20 3.41236e-18 -4.5788e-19 1.23259e-18 3.04056e-19 -1.37677e-18 1.75021e-17 1.01885e-19 -4.95278e-18 2.9788e-18 6.74053e-18 -2.44961e-18 -4.5121e-18 -5.3468e-18 6.43664e-20 -1.02237e-17 -8.7622e-18 -3.38871e-18 2.47439e-18 -3.07137e-18 -2.18657e-19 -4.50644e-18 4.27603e-18 3.12172e-18 0.111689 -0.698354 0.204211 0.153944 -0.608985 0.268384 0.105435 -0.610309 0.1914 0.145629 -0.524841 0.251114 0.196724 -0.525108 0.330763 0.0981958 -0.524452 0.177646 0.121372 -0.698582 -0.199127 0.155859 -0.60901 -0.267648 0.113469 -0.610219 -0.18722 0.14505 -0.524857 -0.251807 0.188403 -0.525138 -0.335917 0.105351 -0.524426 -0.174017 -0.00786105 -0.0506614 -0.00790345 -0.0143902 -0.0479058 -0.0279232 -0.016768 -0.049498 -0.0286694 -0.0208045 -0.0429979 -0.043744 -0.0196346 -0.0416264 -0.0462324 -0.0230132 -0.0439088 -0.0430342 -0.0038967 -0.0511248 0.0120564 -0.0175989 -0.0479382 0.0269316 -0.0171057 -0.049506 0.0295465 -0.0277021 -0.0427088 0.0395648 -0.0306155 -0.041659 0.0402456 -0.0248316 -0.0430743 0.039795 0.179467 -0.913185 -0.318349 0.169438 -1.01457 -0.306301 0.170559 -0.974306 -0.313969 0.157579 -1.07451 -0.300297 0.156601 -1.11206 -0.291172 0.158117 -1.03618 -0.307111 -0.365676 -0.91282 0.00394015 -0.349989 -1.01423 0.00655693 -0.35705 -0.973942 0.00945682 -0.338671 -1.07421 0.0137895 -0.330311 -1.11175 0.0100614 -0.344839 -1.03593 0.0167431 0.186464 -0.912899 0.314678 0.180856 -1.01429 0.299771 0.186901 -0.973958 0.304427 0.181445 -1.07421 0.286351 0.174029 -1.1118 0.280975 0.187098 -1.0359 0.290222 -0.26383 -0.1686 -0.00422424 -0.27666 -0.187976 -0.000306562 -0.301 -0.229016 -0.00369024 -0.312345 -0.251257 -4.1057e-05 -0.288263 -0.206651 0.00347974 -0.333538 -0.29809 -0.00309798 -0.187922 -0.911563 -0.00934933 -0.274186 -0.889816 -0.00978787 -0.211401 -0.804553 -0.00779708 -0.298545 -0.78367 -0.00679821 -0.368141 -0.868127 -0.00987291 -0.232739 -0.698115 -0.0056633 0.0861649 -0.911894 0.167284 0.128837 -0.890129 0.242236 0.0991793 -0.804825 0.186818 0.143584 -0.78394 0.261837 0.175681 -0.868427 0.323691 0.111689 -0.698354 0.204211 0.102089 -0.911961 -0.157797 0.145414 -0.890144 -0.232194 0.112523 -0.804816 -0.17961 0.155017 -0.784063 -0.255432 0.192751 -0.86842 -0.314416 0.121372 -0.698582 -0.199127 -0.105521 -0.895143 -0.179765 -0.105776 -0.901373 -0.178511 -0.105093 -0.802214 -0.173936 -0.106482 -0.808184 -0.172045 -0.105022 -0.908591 -0.175964 -0.103995 -0.708048 -0.16438 -0.102255 -0.895453 0.181235 -0.101006 -0.90149 0.180902 -0.0973825 -0.802873 0.177714 -0.0950535 -0.808371 0.17829 -0.0991939 -0.908537 0.178965 -0.0896806 -0.708577 0.171644 0.208456 -0.89494 -0.00205003 0.207476 -0.901105 -0.00291038 0.203032 -0.801983 -0.00462398 0.202159 -0.80788 -0.00678556 0.204902 -0.908239 -0.00353877 0.194074 -0.707847 -0.00845952 -7.13936e-19 5.7311e-18 7.21672e-18 0.0338948 -0.0307368 -0.00117869 0.0301813 -0.0108966 0.00227822 0.0522005 -0.0283854 -0.00119985 0.0501686 -0.0416635 -0.00644404 0.0521001 -0.0186489 0.0041198 0.0523426 -0.0185721 -0.00360046 0.052539 -0.028614 0.00146323 0.0302533 -0.0108593 -0.0019437 0.0339917 -0.0309692 0.00125429 0.0503924 -0.0418478 0.00666266 -1.379e-17 -1.00604e-17 -5.40001e-18 -0.0229552 -0.018801 0.0471849 -0.0273552 -0.0285676 0.0446699 -0.013407 -0.0109625 0.0272397 -0.018022 -0.0309068 0.0288041 -0.0306155 -0.041659 0.0402456 -2.04772e-18 1.63978e-17 4.33676e-18 0.0169412 -1.62124 0.0455162 0.0256252 -1.62873 0.0509488 0.00406094 -1.62932 0.0316077 0.0143845 -1.63687 0.0371771 0.0274381 -1.63643 0.0467898 -0.00961186 -1.63721 0.0165633 0.0310258 -1.62123 0.0374816 0.0255042 -1.62937 0.0193925 0.0316279 -1.62876 0.0476536 0.0252471 -1.6369 0.0309539 0.0194538 -1.63733 -0.000114383 0.0274381 -1.63643 0.0467898 -0.0480628 -1.62113 0.00794742 -0.0295683 -1.62931 0.0121605 -0.057353 -1.6287 0.00337536 -0.0395818 -1.63693 0.00619521 -0.00961186 -1.63721 0.0165633 -0.0547084 -1.63636 0.000223903 0.0312525 -1.62141 -0.0374241 0.0316454 -1.62864 -0.047735 0.0256647 -1.6294 -0.0194798 0.0252181 -1.63685 -0.0307541 0.0277742 -1.63603 -0.0478526 0.0194538 -1.63733 -0.000114383 -0.0479176 -1.62134 -0.00817035 -0.0572265 -1.62888 -0.0033044 -0.0293829 -1.6294 -0.0125334 -0.0392908 -1.63736 -0.0064855 -0.0547084 -1.63636 0.000223903 -0.00951109 -1.63699 -0.0170261 0.0169115 -1.62168 -0.0452773 0.00395287 -1.62958 -0.031637 0.0253362 -1.62862 -0.0508539 0.0143449 -1.63693 -0.0371452 -0.00951109 -1.63699 -0.0170261 0.0277742 -1.63603 -0.0478526 -0.00959289 -0.0492183 0.0131241 -0.0186703 -0.0484238 0.0325663 -0.00810977 -0.0505421 0.00896636 -0.00477148 -0.0269671 0.00774149 -0.00806878 -0.0316887 0.0110251 -0.0179708 -0.0469538 0.031616 7.93926e-20 3.41236e-18 -4.5788e-19 -0.024161 -0.040353 0.0448652 -0.00922162 -0.0472665 0.0151593 0.0159314 -0.0495908 0.00165563 0.0368525 -0.048715 -0.000186524 0.0117231 -0.0507849 0.00248415 0.0090376 -0.0272594 0.0003204 0.0133349 -0.031924 0.00136674 0.0356184 -0.0473316 -0.000160663 2.47439e-18 -3.07137e-18 -2.18657e-19 0.0500357 -0.0407685 -0.00162184 0.0173205 -0.047588 0.0003514 0.0991342 -0.0975372 0.177609 0.103233 -0.0978785 0.175566 0.12057 -0.138844 0.208244 0.124194 -0.137814 0.205578 0.106841 -0.0962055 0.172307 0.140679 -0.18678 0.237034 -0.031834 -0.0299646 -0.0336096 -0.0395595 -0.0269453 -0.0302008 -0.0153143 -0.0077442 -0.0133511 -0.0186707 -0.00707286 -0.0114611 -0.0489761 -0.0295607 -0.0288783 -1.47693e-18 1.78314e-18 -8.42674e-19 0.132747 -0.18475 0.240586 0.136972 -0.186873 0.239191 0.149232 -0.238206 0.266939 0.153001 -0.239943 0.265519 0.140679 -0.18678 0.237034 0.163829 -0.297967 0.290391 0.171362 -0.368817 0.314466 0.137068 -0.429178 0.241943 0.13499 -0.347203 0.243468 0.103164 -0.405521 0.174533 0.10285 -0.493124 0.169992 0.101948 -0.324994 0.177249 0.18694 -0.369146 -0.305743 0.14136 -0.429609 -0.239622 0.14369 -0.347483 -0.238674 0.0999908 -0.405837 -0.176538 0.0964437 -0.493613 -0.173938 0.102852 -0.325194 -0.176846 0.140679 -0.18678 0.237034 0.136972 -0.186873 0.239191 0.12057 -0.138844 0.208244 0.116345 -0.137446 0.209889 0.132747 -0.18475 0.240586 0.0991342 -0.0975372 0.177609 -0.203489 -0.0978447 0.00258381 -0.171544 -0.0691943 -0.000934277 -0.159107 -0.0592278 0.00361008 -0.127953 -0.0379927 -2.29046e-06 -0.138895 -0.0446332 -0.0046847 -0.115632 -0.030354 0.00475133 -0.00686558 -0.0503796 -0.0137248 -0.0192523 -0.0493943 -0.0321927 -0.0039506 -0.0516254 -0.0109828 -0.0042823 -0.0278168 -0.00774379 -0.00580318 -0.0323473 -0.0115751 -0.0183666 -0.0478182 -0.0308677 -6.55015e-18 4.64091e-18 5.19029e-18 -0.0270827 -0.0407647 -0.0438229 -0.00873257 -0.0480079 -0.0137479 -0.0972835 -0.7089 0.168759 -0.0853913 -0.59164 0.140625 -0.100467 -0.708733 0.166609 -0.0909949 -0.590522 0.13775 -0.0815889 -0.479535 0.120895 -0.103779 -0.708342 0.164508 -0.0266262 -0.0202189 0.0557535 -0.0289599 -0.0212997 0.0525476 -0.0244679 -0.011561 0.0516279 -0.0271935 -0.0124739 0.0485068 -0.0323277 -0.0216155 0.0510625 -0.0199387 -0.00386028 0.0430998 -0.0348226 -0.0203981 -0.0509919 -0.0309622 -0.0212621 -0.0510633 -0.0324003 -0.0117061 -0.0472119 -0.028377 -0.0125048 -0.0478116 -0.0279873 -0.0209707 -0.0521646 -0.0272857 -0.00397935 -0.0390509 0.158112 -0.299183 -0.2948 0.124466 -0.298566 -0.226219 0.171344 -0.368869 -0.314476 0.172771 -0.360783 -0.311085 0.159652 -0.292919 -0.290457 0.111646 -0.23482 -0.206587 0.173678 -0.350919 -0.307132 0.0832638 -0.232511 -0.146422 0.142532 -0.235879 -0.270382 -0.288263 -0.206651 0.00347974 -0.27666 -0.187976 -0.000306562 -0.247328 -0.146657 0.00309085 -0.234502 -0.131038 -0.000925641 -0.26383 -0.1686 -0.00422424 -0.203489 -0.0978447 0.00258381 -0.181971 -0.908912 0.00899401 -0.20762 -0.803321 0.00718838 -0.270384 -0.888318 0.00943301 -0.29771 -0.783602 0.00627602 -0.23111 -0.698191 0.00493915 -0.368271 -0.867783 0.0091762 0.083367 -0.909367 -0.16237 0.0976224 -0.803497 -0.183961 0.127253 -0.888602 -0.239059 0.143553 -0.783686 -0.261413 0.111429 -0.698372 -0.203479 0.176494 -0.867997 -0.323796 0.0990287 -0.908863 0.152962 0.110298 -0.803292 0.176077 0.143593 -0.888279 0.229346 0.154538 -0.783563 0.254586 0.120125 -0.698199 0.197544 0.192286 -0.867738 0.314285 0.068113 -0.0148272 -0.0109152 0.0711036 -0.0145155 -0.00540708 0.0679621 -0.0249578 -0.00965682 0.0635888 -0.0214837 -0.0066593 0.0602849 -0.0118028 -0.00737482 0.0650447 -0.00846319 -0.00662028 0.059797 -0.0171094 -0.00370751 0.0685378 -0.0160581 -0.000934873 0.06225 -0.00508779 -0.0119905 0.176377 -0.299169 0.283941 0.171669 -0.293014 0.283225 0.163042 -0.235904 0.258223 0.123274 -0.234822 0.199619 0.133836 -0.298562 0.220503 0.183005 -0.360879 0.304946 0.0853768 -0.232514 0.144982 0.178993 -0.350812 0.303786 0.186764 -0.368938 0.305239 0.0624293 -0.00521173 0.0120895 0.0624832 -0.015708 0.00714682 0.0682433 -0.0150626 0.0109872 0.0653004 -0.00854812 0.00671447 0.071264 -0.0146092 0.0055564 0.0635004 -0.0254914 0.00633461 0.0680301 -0.0252122 0.00961192 0.0613717 -0.0251568 0.00325433 0.0688719 -0.016103 0.000933594 -0.0220536 -1.51424 -0.0361846 -0.0535044 -1.4603 -0.0761844 -0.0221488 -1.44993 -0.0333345 -0.0523835 -1.39113 -0.0757885 -0.0905859 -1.40128 -0.127873 -0.0156329 -1.37712 -0.0250792 0.0436149 -1.51303 -0.00119034 0.0927246 -1.46049 -0.00855817 0.0397973 -1.45017 -0.00265735 0.0916411 -1.39115 -0.00796143 0.156017 -1.40129 -0.0150836 0.0292034 -1.37724 -0.0013529 -0.0199866 -1.51449 0.0371314 -0.0388737 -1.46055 0.0843788 -0.0174784 -1.45021 0.0357834 -0.0390896 -1.39142 0.0831689 -0.0650611 -1.4015 0.142291 -0.0135938 -1.37749 0.0259724 -0.37516 -0.444443 -0.00733104 -0.386053 -0.505998 -0.00356901 -0.3848 -0.524912 -0.00507509 -0.289013 -0.510248 -0.000960145 -0.279067 -0.429815 -0.00255717 -0.373569 -0.42817 -0.00481836 -0.200579 -0.494731 0.00351701 -0.384151 -0.48543 -0.00165755 -0.357928 -0.368898 -0.00925069 0.106841 -0.0962055 0.172307 0.103233 -0.0978785 0.175566 0.086679 -0.0627437 0.139596 0.0829728 -0.0639088 0.142601 0.0991342 -0.0975372 0.177609 0.0667101 -0.0366985 0.107133 0.0718284 -0.223588 0.122709 0.0547143 -0.173228 0.0923057 0.0890392 -0.176079 0.166913 0.0701086 -0.13085 0.134144 0.0387595 -0.128896 0.0646323 0.10629 -0.130504 0.21074 -0.0255637 -0.0247783 0.0635778 -0.0251086 -0.033513 0.0538361 -0.0259153 -0.0227966 0.0592756 -0.0270776 -0.0310376 0.0531127 -0.024161 -0.040353 0.0448652 -0.0266262 -0.0202189 0.0557535 -0.0418251 -0.0253406 -0.0540906 -0.0340997 -0.033792 -0.0491781 -0.0381451 -0.0230201 -0.0522667 -0.0325834 -0.0311995 -0.0505823 -0.0270827 -0.0407647 -0.0438229 -0.0348226 -0.0203981 -0.0509919 0.193224 -0.70918 -0.000836403 0.162832 -0.589549 0.0036996 0.193331 -0.709555 0.00366033 0.162996 -0.58834 0.0104213 0.146476 -0.475686 0.0103813 0.19365 -0.709094 0.00834837 0.0113652 0.0119672 0.0142698 0.0143559 0.00758781 0.00856123 0.0337203 0.00917329 0.013618 0.03605 -0.00708361 0.00643984 0.0127957 -0.0111217 0.0069294 -0.0109835 0.00716975 0.00892477 0.0397237 -0.0314585 -0.00134241 -0.00409112 0.00574732 0.00393208 -0.0158024 0.0103297 0.0147488 0.0864128 -0.0888705 -0.177964 0.0858606 -0.0808588 -0.166565 0.0664125 -0.054925 -0.144331 0.0523297 -0.0915287 -0.104509 0.0700158 -0.130696 -0.134186 0.105419 -0.119652 -0.199665 0.0386497 -0.128722 -0.0646074 0.103274 -0.107407 -0.186865 0.106191 -0.130385 -0.210877 0.0865581 -0.0890183 0.177846 0.103494 -0.114569 0.195119 0.10629 -0.130504 0.21074 0.0701086 -0.13085 0.134144 0.0524834 -0.0916728 0.104462 0.0839562 -0.0768125 0.161919 0.0387595 -0.128896 0.0646323 0.0991342 -0.0975372 0.177609 0.0666256 -0.0550572 0.14421 0.0112415 0.0119862 -0.0144014 -0.00302299 0.00796012 -0.00941944 -0.015893 0.0103589 -0.0149365 0.0126738 -0.0109843 -0.00705606 0.0359177 -0.00697518 -0.00648984 0.0208744 0.00712966 -0.00898046 0.0397077 -0.0313149 0.00123051 0.0101303 0.00586068 -0.00469203 0.0335846 0.00930665 -0.0137 0.111208 -0.0888908 -0.163731 0.114447 -0.105968 -0.17996 0.129859 -0.130368 -0.197273 0.0814834 -0.130735 -0.127679 0.0646437 -0.0915615 -0.0975445 0.0953888 -0.0697065 -0.146307 0.0369433 -0.128832 -0.0656839 0.098177 -0.0827852 -0.160702 0.0920715 -0.0549024 -0.129662 0.092014 -0.0549846 0.129398 0.099646 -0.0754696 0.151751 0.0796012 -0.0463481 0.11927 0.086679 -0.0627437 0.139596 0.106841 -0.0962055 0.172307 0.0667101 -0.0366985 0.107133 -0.00409112 0.00574732 0.00393208 0.00245171 0.00541589 -0.000425094 0.022772 0.00404344 0.00313107 0.0277815 0.00265568 -0.000978783 0.0101303 0.00586068 -0.00469203 0.0426733 -0.00232849 0.00230233 0.193867 -0.444861 -0.321535 0.196058 -0.506179 -0.332756 0.196625 -0.525308 -0.330941 0.144711 -0.509991 -0.248917 0.14136 -0.429609 -0.239622 0.190924 -0.428354 -0.321354 0.0964437 -0.493613 -0.173938 0.193406 -0.485923 -0.33128 0.18694 -0.369146 -0.305743 0.181495 -0.444463 0.328466 0.190101 -0.505393 0.335987 0.188192 -0.524885 0.335703 0.143436 -0.509458 0.249694 0.137068 -0.429178 0.241943 0.182792 -0.427512 0.325692 0.10285 -0.493124 0.169992 0.19079 -0.48425 0.333309 0.171362 -0.368817 0.314466 -0.0969074 -0.709264 -0.16722 -0.0773244 -0.588993 -0.142336 -0.0929024 -0.709556 -0.169393 -0.0710497 -0.587653 -0.145734 -0.0618953 -0.473658 -0.129733 -0.0888351 -0.709059 -0.171992 0.194074 -0.707847 -0.00845952 0.168107 -0.607822 -0.0180109 0.166706 -0.601397 -0.0106579 0.152544 -0.50938 -0.0210459 0.151338 -0.512798 -0.0307916 0.150116 -0.50228 -0.0112821 -0.0149455 -0.0338007 0.0466119 -0.00692733 -0.0285336 0.0502183 -0.00454265 -0.00887716 0.0207149 -0.000589883 -0.00721167 0.0220404 -0.000464858 -0.029885 0.0569314 -3.06327e-18 1.57125e-18 -1.71687e-18 -0.103995 -0.708048 -0.16438 -0.0993246 -0.608117 -0.13713 -0.0922884 -0.601644 -0.139559 -0.0941245 -0.50964 -0.121888 -0.101983 -0.51295 -0.115982 -0.0845192 -0.502793 -0.124717 -0.0618953 -0.473658 -0.129733 -0.0512846 -0.371705 -0.12076 -0.0471445 -0.407822 -0.130495 -0.0348105 -0.310924 -0.125057 -0.0409569 -0.283168 -0.115442 -0.0282291 -0.337516 -0.134676 -0.104827 -0.938504 0.180244 -0.104108 -1.00257 0.180822 -0.10402 -0.916989 0.180822 -0.104201 -0.982055 0.181046 -0.103744 -1.06626 0.1787 -0.102255 -0.895453 0.181235 -0.0301064 -0.201052 0.0102778 -0.0328782 -0.280786 0.0102315 -0.064376 -0.259313 0.0463843 -0.0721152 -0.355771 0.0577431 -0.0354029 -0.376869 0.0141771 -0.102607 -0.337422 0.0917138 0.00622251 -0.201235 -0.0309973 0.00736824 -0.28117 -0.0341277 -0.00813065 -0.259588 -0.0791852 -0.0140159 -0.355737 -0.0920089 0.00606647 -0.376811 -0.039438 -0.0282291 -0.337516 -0.134676 0.135322 -0.169115 -0.226969 0.138217 -0.188198 -0.240021 0.15365 -0.229204 -0.259265 0.15611 -0.25132 -0.270915 0.140576 -0.206517 -0.251881 0.169691 -0.298359 -0.287579 0.140679 -0.18678 0.237034 0.124194 -0.137814 0.205578 0.135559 -0.159306 0.218548 0.118557 -0.11334 0.185395 0.106841 -0.0962055 0.172307 0.129587 -0.130654 0.197034 -0.103779 -0.708342 0.164508 -0.105085 -0.824567 0.175246 -0.100467 -0.708733 0.166609 -0.103511 -0.82434 0.176516 -0.104827 -0.938504 0.180244 -0.0972835 -0.7089 0.168759 -0.0176877 -0.0482774 -0.02364 -0.0439243 -0.0771009 -0.0456223 -0.0163417 -0.0794888 -0.0130392 -0.0408698 -0.0494428 -0.0507541 -0.0633441 -0.0724509 -0.0650466 -0.0178786 -0.0251175 -0.0326548 -0.352619 -0.350746 0.00316106 -0.343849 -0.32503 0.000209988 -0.323392 -0.274815 0.00343072 -0.312345 -0.251257 -4.1057e-05 -0.333538 -0.29809 -0.00309798 -0.288263 -0.206651 0.00347974 -0.0556712 -0.00395492 -0.00310765 -0.0852202 -0.0153986 0.000780104 -0.0956778 -0.0198728 -0.00391691 -0.127953 -0.0379927 -2.29046e-06 -0.115632 -0.030354 0.00475133 -0.138895 -0.0446332 -0.0046847 0.0856529 -0.0520255 0.0245769 0.0940038 -0.0649268 0.0243888 0.09236 -0.0691028 0.0353103 0.101085 -0.0905337 0.0336711 0.0852507 -0.0742887 0.021881 0.096642 -0.0976969 0.0451365 0.116346 -1.22953 0.00506937 0.041513 -1.28875 0.000719408 0.047913 -1.18789 -0.000496739 0.101896 -1.32616 0.00674169 0.0337874 -1.38007 0.00123488 0.184769 -1.26752 0.0113556 -0.0534004 -1.22983 -0.103529 -0.0198026 -1.28906 -0.0365165 -0.0240519 -1.18819 -0.0414733 -0.0447304 -1.32647 -0.0918315 -0.0154877 -1.38042 -0.0300623 -0.0821249 -1.26782 -0.165946 -0.0338491 -0.37596 -0.0118122 -0.0305474 -0.281893 -0.00709974 -0.0716784 -0.355609 -0.0573732 -0.0630526 -0.260413 -0.0448847 -0.0275532 -0.204233 -0.00674405 -0.103247 -0.337755 -0.0924069 -0.00146202 -1.06072 -0.00626324 -0.00016912 -0.965137 -0.0109519 0.0394887 -0.986127 -0.0830328 0.0427598 -0.888161 -0.0895879 0.00156626 -0.866819 -0.0169324 0.083367 -0.909367 -0.16237 -0.00463442 -1.0605 0.00438755 -0.0095511 -0.964938 0.00562658 -0.0914305 -0.98582 0.00736296 -0.0989447 -0.887877 0.00781207 -0.0159238 -0.866582 0.00716743 -0.181971 -0.908912 0.00899401 0.006439 -1.06043 0.00163067 0.00998214 -0.964856 0.00526587 0.0523741 -0.985762 0.0753378 0.0565248 -0.887825 0.081612 0.0145062 -0.866484 0.0100045 0.0990287 -0.908863 0.152962 0.189014 -0.699887 -0.329333 0.19588 -0.583519 -0.337158 0.189939 -0.700626 -0.329805 0.195752 -0.584113 -0.338065 0.193406 -0.485923 -0.33128 0.190661 -0.70091 -0.329884 -0.379869 -0.699759 0.000851586 -0.390136 -0.583336 -0.00116255 -0.38027 -0.700376 0.000201655 -0.390366 -0.583995 -0.000632164 -0.384151 -0.48543 -0.00165755 -0.380427 -0.700613 -0.000356088 -0.0982486 -1.22307 0.164907 -0.0931211 -1.29758 0.153479 -0.100254 -1.24436 0.160111 -0.0953839 -1.31835 0.147723 -0.0865548 -1.36636 0.140369 -0.102206 -1.26802 0.153936 -0.0881072 -0.0973243 0.0613144 -0.0780258 -0.119004 0.0666145 -0.0587434 -0.0674141 0.0493848 -0.0542455 -0.0871117 0.0592594 -0.0700649 -0.143242 0.0749947 -0.0356304 -0.0398067 0.0397554 0.146476 -0.475686 0.0103813 0.130775 -0.373686 0.0164849 0.136612 -0.408717 0.0246211 0.125945 -0.310236 0.0320035 0.121521 -0.281791 0.0213734 0.130673 -0.337268 0.0428268 0.10629 -0.130504 0.21074 0.103494 -0.114569 0.195119 0.120317 -0.157534 0.22647 0.116345 -0.137446 0.209889 0.0991342 -0.0975372 0.177609 0.132747 -0.18475 0.240586 0.0330669 -0.0027108 0.0434901 0.0291846 -0.00385552 0.046514 0.0172929 0.00473844 0.0166171 0.0135786 0.00348944 0.0197449 0.0245693 -0.00335154 0.0479765 0.0036918 0.00677408 -0.00652766 0.0394471 -0.700658 0.0121411 0.0976367 -0.606047 0.0185673 -0.00197146 -0.616362 0.0132859 0.0502892 -0.521505 0.021073 0.151417 -0.514019 0.0300228 -0.0398303 -0.534817 0.0134729 -0.0301471 -0.701312 0.0278957 -0.0650842 -0.606321 0.074672 -0.0104793 -0.616259 -0.00912181 -0.0434367 -0.521442 0.033664 -0.101857 -0.513389 0.115757 0.00855296 -0.534837 -0.0420432 -0.00875975 -0.70054 -0.0404591 -0.0322216 -0.605898 -0.0942015 0.0129566 -0.616352 -0.00514393 -0.00643639 -0.521476 -0.0544216 -0.0492495 -0.514058 -0.146612 0.0319818 -0.535086 0.0276363 0.190899 -0.699793 0.328428 0.19429 -0.582709 0.338363 0.190526 -0.700403 0.329113 0.194888 -0.583429 0.338306 0.19079 -0.48425 0.333309 0.19011 -0.700659 0.329546 -0.0109269 -0.0477989 -0.0263174 -0.0231132 -0.0491388 -0.0603678 -0.018568 -0.0241922 -0.0302508 -0.0170545 -0.0773009 -0.0611582 -0.0245179 -0.0726853 -0.0879502 -0.00262347 -0.0794095 -0.0206728 -0.0156329 -1.37712 -0.0250792 0.0127902 -1.31881 0.0138614 0.0255423 -1.38903 0.0323582 0.0564777 -1.3296 0.0755237 0.044143 -1.25483 0.059537 0.0652995 -1.39738 0.086772 0.0292034 -1.37724 -0.0013529 -0.0184757 -1.3189 0.00383605 -0.0408382 -1.38911 0.00556288 -0.09368 -1.32965 0.0108801 -0.0736484 -1.25487 0.00817685 -0.107843 -1.3974 0.0128747 -0.0135938 -1.37749 0.0259724 0.00592923 -1.31909 -0.018019 0.0155015 -1.38933 -0.0383239 0.0374188 -1.3299 -0.0867163 0.0297713 -1.25511 -0.0679968 0.0427038 -1.39764 -0.0999927 -0.0382059 -0.0347675 -0.0500428 -0.0340997 -0.033792 -0.0491781 -0.0418251 -0.0253406 -0.0540906 -0.0349824 -0.0254636 -0.054806 -0.0274493 -0.028753 -0.0445397 -0.029229 -0.042009 -0.0417211 -0.0230067 -0.0183175 -0.0467504 -0.0270827 -0.0407647 -0.0438229 -0.0309575 -0.0423181 -0.0403624 -0.0240406 -0.0340237 0.0577413 -0.0251086 -0.033513 0.0538361 -0.0255637 -0.0247783 0.0635778 -0.0300378 -0.0249749 0.057041 -0.0249129 -0.0283491 0.0456044 -0.0215168 -0.0412628 0.045683 -0.0293074 -0.0186568 0.0428705 -0.024161 -0.040353 0.0448652 -0.019548 -0.0414726 0.0464908 0.0621775 -0.0342206 -0.00814117 0.058896 -0.0339112 -0.00517981 0.0679621 -0.0249578 -0.00965682 0.0646338 -0.0250246 -0.0024598 0.0522005 -0.0283854 -0.00119985 0.0498767 -0.0416418 -0.00428718 0.0521001 -0.0186489 0.0041198 0.0500357 -0.0407685 -0.00162184 0.0501686 -0.0416635 -0.00644404 0.0573454 -0.0357714 0.111868 0.0782427 -0.0629972 0.144571 0.0623791 -0.04535 0.128338 0.0839562 -0.0768125 0.161919 0.0991342 -0.0975372 0.177609 0.0666256 -0.0550572 0.14421 0.0573454 -0.0357714 0.111868 0.0625839 -0.0372754 0.110306 0.0782427 -0.0629972 0.144571 0.0829728 -0.0639088 0.142601 0.0667101 -0.0366985 0.107133 0.0991342 -0.0975372 0.177609 -0.0888351 -0.709059 -0.171992 -0.0988952 -0.826492 -0.179235 -0.0929024 -0.709556 -0.169393 -0.100943 -0.826843 -0.177918 -0.103895 -0.942806 -0.181776 -0.0969074 -0.709264 -0.16722 0.19365 -0.709094 0.00834837 0.204727 -0.826513 0.003392 0.193331 -0.709555 0.00366033 0.204536 -0.826786 0.00101604 0.20935 -0.942767 0.000386343 0.193224 -0.70918 -0.000836403 0.195452 -1.19851 0.00367347 0.18291 -1.28123 0.00390003 0.190619 -1.23249 0.00716682 0.176994 -1.31268 0.00769349 0.167475 -1.35684 0.00313689 0.184769 -1.26752 0.0113556 -0.0941233 -1.1987 -0.171346 -0.0876662 -1.2814 -0.160586 -0.0886758 -1.23274 -0.168911 -0.0814099 -1.31291 -0.157366 -0.080622 -1.35697 -0.146818 -0.0821249 -1.26782 -0.165946 0.0846905 -0.0742439 -0.0218126 0.0943686 -0.0653858 -0.0247087 0.101675 -0.0909703 -0.0339604 0.0927388 -0.0687298 -0.0353844 0.0852405 -0.0525918 -0.0248128 0.09733 -0.0970823 -0.0456543 0.00683261 -0.375724 0.0355313 0.00914384 -0.280914 0.0305656 -0.013261 -0.355208 0.0902908 -0.00656484 -0.259055 0.076377 0.00777813 -0.202576 0.0280028 -0.0277322 -0.337574 0.135156 0.0215153 -0.00276147 -0.050336 0.0260976 -0.00381195 -0.0483443 0.00609726 0.00468897 -0.0232622 0.0106658 0.00350542 -0.0215094 0.029623 -0.00320624 -0.0448727 -0.00719592 0.00671279 5.83777e-05 0.0368176 -0.128973 0.0654443 0.0596366 -0.177209 0.10314 0.0813826 -0.130959 0.127405 0.10786 -0.179712 0.171576 0.0853768 -0.232514 0.144982 0.129587 -0.130654 0.197034 0.0386497 -0.128722 -0.0646074 0.0598549 -0.177073 -0.103207 0.0700158 -0.130696 -0.134186 0.0949837 -0.179724 -0.179161 0.0832638 -0.232511 -0.146422 0.106191 -0.130385 -0.210877 0.0688719 -0.016103 0.000933594 0.0580302 -0.021005 -0.000457148 0.053406 -0.0045289 0.00736494 0.03605 -0.00708361 0.00643984 0.0397237 -0.0314585 -0.00134241 0.0337203 0.00917329 0.013618 0.0397077 -0.0313149 0.00123051 0.0578977 -0.0209193 0.000459502 0.0359177 -0.00697518 -0.00648984 0.0532064 -0.00442672 -0.00734808 0.0685378 -0.0160581 -0.000934873 0.0335846 0.00930665 -0.0137 0.19079 -0.48425 0.333309 0.186055 -0.417384 0.321422 0.193422 -0.498836 0.334051 0.189485 -0.43 0.322624 0.178993 -0.350812 0.303786 0.195333 -0.512039 0.334106 -0.357673 -0.368842 0.00878171 -0.376538 -0.443856 0.00469229 -0.355509 -0.360685 0.00588604 -0.374954 -0.433403 0.00261086 -0.387791 -0.519345 0.00174764 -0.352619 -0.350746 0.00316106 0.171344 -0.368869 -0.314476 0.184339 -0.443989 -0.328823 0.172771 -0.360783 -0.311085 0.185376 -0.433543 -0.326356 0.192654 -0.519586 -0.33715 0.173678 -0.350919 -0.307132 -0.345054 -1.03584 -0.0171776 -0.264587 -0.975329 -0.0125876 -0.258464 -1.08805 -0.0160732 -0.185897 -1.0281 -0.0114247 -0.187922 -0.911563 -0.00934933 -0.180805 -1.13875 -0.0137612 0.157786 -1.03617 0.307323 0.121597 -0.975657 0.235315 0.115483 -1.08837 0.231746 0.0832941 -1.02843 0.166553 0.0861649 -0.911894 0.167284 0.078692 -1.13908 0.163305 0.187548 -1.03639 -0.290385 0.143236 -0.975817 -0.222788 0.143197 -1.08857 -0.215907 0.1028 -1.02854 -0.155305 0.102089 -0.911961 -0.157797 0.102337 -1.13925 -0.149825 -0.103437 -1.00556 0.177259 -0.104186 -0.997572 0.179613 -0.105314 -1.09959 0.172531 -0.0531158 -1.02422 0.0942957 -0.0487219 -0.92638 0.0932515 -0.101006 -0.90149 0.180902 -0.0031564 -0.943971 0.0168909 -0.102255 -0.895453 0.181235 -0.0991939 -0.908537 0.178965 -0.10152 -1.00548 -0.178475 -0.103101 -0.997711 -0.180165 -0.0964865 -1.09923 -0.177396 -0.0550964 -1.02398 -0.093853 -0.0562424 -0.926376 -0.0893794 -0.105776 -0.901373 -0.178511 -0.0128835 -0.943833 -0.0115072 -0.105521 -0.895143 -0.179765 -0.105022 -0.908591 -0.175964 0.205322 -1.00516 0.000789987 0.207572 -0.997454 0.000271358 0.201852 -1.09893 0.0046337 0.108786 -1.02371 -0.00124225 0.105494 -0.926042 -0.00448212 0.207476 -0.901105 -0.00291038 0.0162657 -0.943552 -0.00580863 0.208456 -0.89494 -0.00205003 0.204902 -0.908239 -0.00353877 -0.00849127 -0.701125 0.039173 -0.00690369 -0.823462 0.028935 0.025721 -0.699774 -0.0235711 0.0278022 -0.821949 -0.0317663 -0.0031564 -0.943971 0.0168909 0.0573492 -0.699112 -0.0815386 -0.0290882 -0.700986 -0.0270321 -0.0211303 -0.823405 -0.0208038 0.00776636 -0.699634 0.033637 0.0137985 -0.821903 0.0398504 -0.0128835 -0.943833 -0.0115072 0.0420803 -0.698926 0.0897355 0.0379969 -0.700697 -0.0120904 0.0284958 -0.823069 -0.00835179 -0.0330185 -0.699374 -0.0105488 -0.0415836 -0.821564 -0.00836443 0.0162657 -0.943552 -0.00580863 -0.098842 -0.698648 -0.00883249 -0.0237337 -0.0694431 0.0832532 -0.0261617 -0.0626786 0.0929368 -0.0217167 -0.0886263 0.104466 -0.015957 -0.0680295 0.0977221 -0.0216033 -0.0514727 0.0855999 -0.00914869 -0.0978258 0.106821 -0.0128835 -0.943833 -0.0115072 0.00853157 -1.02121 0.0265368 0.035931 -0.928106 0.0773481 0.0558262 -1.00563 0.11414 0.028183 -1.09603 0.0631344 0.0861649 -0.911894 0.167284 -0.0031564 -0.943971 0.0168909 0.0191273 -1.02133 -0.0207722 0.0496064 -0.928128 -0.0701576 0.0712483 -1.00567 -0.105443 0.0409063 -1.09614 -0.0560574 0.102089 -0.911961 -0.157797 0.0162657 -0.943552 -0.00580863 -0.0273222 -1.0209 -0.00626137 -0.0849953 -0.927777 -0.00793712 -0.126784 -1.0053 -0.00905496 -0.0688143 -1.09571 -0.00750664 -0.187922 -0.911563 -0.00934933 0.0245693 -0.00335154 0.0479765 0.0451761 -0.0170463 0.0767307 0.0403284 -0.0163171 0.0787934 0.0625839 -0.0372754 0.110306 0.0667101 -0.0366985 0.107133 0.0573454 -0.0357714 0.111868 0.00606647 -0.376811 -0.039438 0.00736824 -0.28117 -0.0341277 0.02956 -0.36205 0.0169672 0.0275529 -0.271166 0.0162572 0.00622251 -0.201235 -0.0309973 0.0540095 -0.348639 0.0729358 -0.0113871 -0.0471393 0.0264205 -0.0166222 -0.0751801 0.0583252 -0.00272583 -0.079311 0.0207459 -0.0226859 -0.0468327 0.0578472 -0.0237337 -0.0694431 0.0832532 -0.0194103 -0.023547 0.0305889 0.186764 -0.368938 0.305239 0.1923 -0.440543 0.323022 0.183005 -0.360879 0.304946 0.189485 -0.43 0.322624 0.195333 -0.512039 0.334106 0.178993 -0.350812 0.303786 -0.0434748 -0.530241 -0.0137882 0.0490235 -0.519172 -0.021516 -0.0050423 -0.613411 -0.0140254 0.0962877 -0.605966 -0.0195989 0.151338 -0.512798 -0.0307916 0.0379969 -0.700697 -0.0120904 0.0336461 -0.531051 -0.0310418 -0.00558175 -0.519466 0.052217 0.0139536 -0.61458 0.00288649 -0.0322428 -0.606353 0.0930861 -0.0493404 -0.513842 0.146222 -0.00849127 -0.701125 0.039173 0.0101285 -0.530576 0.0440401 -0.0426527 -0.519351 -0.0319241 -0.00927977 -0.6137 0.0110508 -0.0647131 -0.606166 -0.0738018 -0.101983 -0.51295 -0.115982 -0.0290882 -0.700986 -0.0270321 0.176494 -0.867997 -0.323796 0.184796 -0.782906 -0.328235 0.178363 -0.891002 -0.322301 0.185243 -0.806218 -0.326275 0.189014 -0.699887 -0.329333 0.179467 -0.913185 -0.318349 -0.368271 -0.867783 0.0091762 -0.376489 -0.782816 0.00405815 -0.368115 -0.890613 0.00683219 -0.375013 -0.806141 0.00257881 -0.379869 -0.699759 0.000851586 -0.365676 -0.91282 0.00394015 0.192286 -0.867738 0.314285 0.19198 -0.782798 0.323924 0.190171 -0.890628 0.31532 0.189938 -0.806139 0.32338 0.190899 -0.699793 0.328428 0.186464 -0.912899 0.314678 -0.101573 -1.00552 0.178051 -0.046989 -1.08126 0.081595 -0.0965052 -1.09908 0.177532 -0.102522 -1.01859 0.180143 -0.105439 -0.923315 0.178771 -0.0486793 -0.985447 0.078677 -0.104827 -0.938504 0.180244 -0.00146202 -1.06072 -0.00626324 -0.105095 -0.908432 0.175187 0.140576 -0.206517 -0.251881 0.122465 -0.152572 -0.22035 0.124556 -0.167719 -0.232584 0.105419 -0.119652 -0.199665 0.103274 -0.107407 -0.186865 0.106191 -0.130385 -0.210877 -0.0865548 -1.36636 0.140369 -0.0931211 -1.29758 0.153479 -0.0837292 -1.36037 0.143919 -0.0903331 -1.29185 0.156758 -0.0982486 -1.22307 0.164907 -0.0803373 -1.35694 0.146406 0.0145062 -0.866484 0.0100045 -0.0391923 -0.887541 -0.0799771 0.0022177 -0.783899 -0.0150809 -0.0525374 -0.805699 -0.108998 -0.0991554 -0.908022 -0.178795 -0.00875975 -0.70054 -0.0404591 0.00156626 -0.866819 -0.0169324 -0.0491877 -0.887874 0.0738954 -0.0139637 -0.784493 0.00600274 -0.0675623 -0.806533 0.100584 -0.105095 -0.908432 0.175187 -0.0301471 -0.701312 0.0278957 -0.0159238 -0.866582 0.00716743 0.0888689 -0.887664 0.00556498 0.0119563 -0.784009 0.00902554 0.120691 -0.805864 0.00846569 0.204392 -0.908145 0.00296385 0.0394471 -0.700658 0.0121411 -0.0199387 -0.00386028 0.0430998 -0.012431 0.00247935 0.0296874 -0.0128125 0.00252465 0.0393416 -0.00321494 0.00692481 0.0225832 -0.00240778 0.00572766 0.011715 -0.00486081 0.00943233 0.0359111 0.0613717 -0.0251568 0.00325433 0.0572419 -0.0354155 0.00303037 0.0635004 -0.0254914 0.00633461 0.05842 -0.0356354 0.00565159 0.0465129 -0.0441066 0.00246563 0.0680301 -0.0252122 0.00961192 -0.0272857 -0.00397935 -0.0390509 -0.0193759 0.00235449 -0.0258866 -0.0276024 0.00234018 -0.031034 -0.0178516 0.00677617 -0.0144061 -0.00881251 0.00562397 -0.00831861 -0.0286301 0.00924407 -0.0224986 -0.103744 -1.06626 0.1787 -0.104108 -1.00257 0.180822 -0.101055 -1.11512 0.176546 -0.101948 -1.05366 0.17927 -0.104827 -0.938504 0.180244 -0.0969307 -1.16378 0.1737 -0.102206 -1.26802 0.153936 -0.0567376 -1.32662 0.0845406 -0.0625937 -1.23003 0.0979272 -0.0214443 -1.28921 0.0353855 -0.0179536 -1.38048 0.0283924 -0.0236803 -1.18824 0.0415667 0.00586358 -1.65722 -0.0102567 -0.00489157 -1.65514 -0.0181116 -0.000897467 -1.65484 -0.025793 -0.0168887 -1.65402 -0.0365444 -0.0125258 -1.65576 -0.0222652 -0.0132611 -1.65125 -0.0453131 -0.0125258 -1.65576 -0.0222652 -0.0129993 -1.65526 -0.0136588 -0.0228649 -1.65402 -0.0329955 -0.0215878 -1.65489 -0.0137471 -0.0115761 -1.6571 -0.00027368 -0.0323728 -1.65129 -0.0342607 0.0251866 -1.65533 2.39237e-05 0.0181169 -1.65509 -0.00480819 0.0399524 -1.65381 -0.00356551 0.0228205 -1.65478 -0.0121505 0.00586358 -1.65722 -0.0102567 0.0458331 -1.65113 -0.011166 0.00605088 -1.65721 0.00981108 0.0180174 -1.65481 0.00457718 0.0227963 -1.65479 0.0117462 0.0399487 -1.6538 0.00332906 0.0251866 -1.65533 2.39237e-05 0.0457805 -1.65114 0.0107642 -0.0115761 -1.6571 -0.00027368 -0.0129104 -1.65508 0.0130728 -0.0215909 -1.65479 0.0135322 -0.0228214 -1.65396 0.0327026 -0.0124731 -1.65559 0.0216591 -0.0322475 -1.65122 0.0340015 -0.0124731 -1.65559 0.0216591 -0.00486442 -1.65527 0.0178247 -0.0168124 -1.65396 0.0361563 -0.00081182 -1.6548 0.0254978 0.00605088 -1.65721 0.00981108 -0.0131658 -1.65121 0.0449784 0.00777547 -0.102255 0.0224206 0.00517666 -0.16572 0.0291364 0.0368176 -0.128973 0.0654443 -0.0221612 -0.133521 -0.00928246 -0.0275532 -0.204233 -0.00674405 -0.0163417 -0.0794888 -0.0130392 -0.024161 -0.040353 0.0448652 -0.0292565 -0.0322267 0.0506603 -0.0270776 -0.0310376 0.0531127 -0.0289599 -0.0212997 0.0525476 -0.0323277 -0.0216155 0.0510625 -0.0266262 -0.0202189 0.0557535 -0.0270827 -0.0407647 -0.0438229 -0.0291398 -0.0318344 -0.0505562 -0.0325834 -0.0311995 -0.0505823 -0.0309622 -0.0212621 -0.0510633 -0.0279873 -0.0209707 -0.0521646 -0.0348226 -0.0203981 -0.0509919 -0.200579 -0.494731 0.00351701 -0.289013 -0.510248 -0.000960145 -0.216607 -0.594912 0.00392135 -0.308605 -0.608892 0.000574506 -0.3848 -0.524912 -0.00507509 -0.23111 -0.698191 0.00493915 -0.0766004 -0.274644 0.0938818 -0.0582221 -0.207124 0.0891266 -0.0740451 -0.204493 0.0844427 -0.054375 -0.143981 0.0800146 -0.0409041 -0.142792 0.0866288 -0.0700649 -0.143242 0.0749947 0.121521 -0.281791 0.0213734 0.119638 -0.284479 0.00628172 0.111472 -0.211064 0.0218302 0.107615 -0.214653 0.00566461 0.119067 -0.283994 -0.00813094 0.100631 -0.147708 0.0204946 0.0160625 -0.102185 0.0180088 0.00270926 -0.132294 -0.0255811 -0.00262347 -0.0794095 -0.0206728 0.022065 -0.164423 0.0169085 0.00622251 -0.201235 -0.0309973 0.0387595 -0.128896 0.0646323 0.0158461 -0.101957 -0.0180261 0.022876 -0.164577 -0.018847 0.0386497 -0.128722 -0.0646074 0.00325821 -0.13232 0.0241173 0.00777813 -0.202576 0.0280028 -0.00272583 -0.079311 0.0207459 0.193406 -0.485923 -0.33128 0.185654 -0.418366 -0.321881 0.193172 -0.5031 -0.334995 0.185376 -0.433543 -0.326356 0.173678 -0.350919 -0.307132 0.192654 -0.519586 -0.33715 -0.384151 -0.48543 -0.00165755 -0.371518 -0.418025 0.000283107 -0.386438 -0.50294 0.000202295 -0.374954 -0.433403 0.00261086 -0.352619 -0.350746 0.00316106 -0.387791 -0.519345 0.00174764 0.0964437 -0.493613 -0.173938 0.144711 -0.509991 -0.248917 0.104521 -0.594016 -0.189316 0.153979 -0.609043 -0.268063 0.196625 -0.525308 -0.330941 0.111429 -0.698372 -0.203479 0.10285 -0.493124 0.169992 0.143436 -0.509458 0.249694 0.111548 -0.594133 0.184575 0.155089 -0.60886 0.266872 0.188192 -0.524885 0.335703 0.120125 -0.698199 0.197544 0.142532 -0.235879 -0.270382 0.159652 -0.292919 -0.290457 0.141944 -0.222081 -0.261514 0.158575 -0.274768 -0.282125 0.173678 -0.350919 -0.307132 0.140576 -0.206517 -0.251881 0.184295 -1.26759 -0.01211 0.176106 -1.31468 -0.00957202 0.191067 -1.22745 -0.00688626 0.183247 -1.27819 -0.00446575 0.165989 -1.35979 -0.00571092 0.196317 -1.18916 -0.00281007 -0.102281 -1.26757 -0.15389 -0.096008 -1.31474 -0.14807 -0.101147 -1.22748 -0.162323 -0.0951365 -1.27826 -0.156732 -0.0876177 -1.35989 -0.141181 -0.100215 -1.18924 -0.168879 -0.0409569 -0.283168 -0.115442 -0.0538228 -0.288326 -0.10754 -0.0360985 -0.212396 -0.107757 -0.048734 -0.21679 -0.0973205 -0.0667759 -0.28778 -0.100736 -0.0317067 -0.149575 -0.0979547 0.0624568 -1.40189 -0.0826653 0.0229169 -1.39296 -0.0285617 0.0335402 -1.46234 -0.0434431 -0.000813577 -1.45232 0.00378467 -0.0179536 -1.38048 0.0283924 0.00860711 -1.51765 -0.0130279 -0.102534 -1.40136 -0.0129046 -0.0359277 -1.39245 -0.00572423 -0.0541474 -1.46196 -0.00741249 0.00388764 -1.45199 -0.00131038 0.0337874 -1.38007 0.00123488 -0.015588 -1.51688 -0.00118146 0.0402713 -1.40172 0.0950737 0.0132697 -1.39284 0.0338342 0.0208824 -1.46229 0.0504256 -0.00281487 -1.45237 -0.00286284 -0.0154877 -1.38042 -0.0300623 0.00705518 -1.51727 0.0138809 0.0465129 -0.0441066 0.00246563 0.0572419 -0.0354155 0.00303037 0.0477577 -0.0431507 0.000410187 0.0574423 -0.0340518 0.000370743 0.0613717 -0.0251568 0.00325433 0.0500357 -0.0407685 -0.00162184 -0.01632 -0.000190185 -0.0365132 -0.0213964 -0.00250662 -0.036974 -0.0243605 -0.00957561 -0.0483897 -0.028377 -0.0125048 -0.0478116 -0.0272857 -0.00397935 -0.0390509 -0.0279873 -0.0209707 -0.0521646 -0.0232355 -0.000244378 0.0323579 -0.0210482 -0.00247737 0.037014 -0.0298552 -0.00991306 0.0454687 -0.0271935 -0.0124739 0.0485068 -0.0199387 -0.00386028 0.0430998 -0.0323277 -0.0216155 0.0510625 -0.0492495 -0.514058 -0.146612 -0.0688238 -0.608003 -0.154641 -0.0570006 -0.49662 -0.140649 -0.0710497 -0.587653 -0.145734 -0.0888351 -0.709059 -0.171992 -0.0618953 -0.473658 -0.129733 0.151417 -0.514019 0.0300228 0.168416 -0.60817 0.0169836 0.150971 -0.497277 0.0200926 0.162996 -0.58834 0.0104213 0.19365 -0.709094 0.00834837 0.146476 -0.475686 0.0103813 -0.0356304 -0.0398067 0.0397554 -0.0175761 -0.010718 0.0163897 -0.0416434 -0.0325765 0.0339247 -0.0185966 -0.00746646 0.0118509 -3.75023e-19 1.20506e-17 -5.83515e-18 -0.0486395 -0.0308882 0.0297015 0.00847588 -0.0903206 0.00787974 0.0557457 -0.0830572 0.0151483 0.0261393 -0.055936 0.00491346 0.0638344 -0.0529825 0.0110174 0.0852507 -0.0742887 0.021881 0.0397077 -0.0313149 0.00123051 -0.190557 -1.12482 0.0135403 -0.129327 -1.19151 0.0114815 -0.0986657 -1.09395 0.00858144 -0.0416858 -1.16101 0.00574641 -0.0736484 -1.25487 0.00817685 -0.00463442 -1.0605 0.00438755 0.0836458 -1.12508 -0.171959 0.0547802 -1.19177 -0.117893 0.0419603 -1.09423 -0.0898955 0.0158669 -1.16126 -0.0390883 0.0297713 -1.25511 -0.0679968 -0.00146202 -1.06072 -0.00626324 0.107223 -1.12478 0.158161 0.0748351 -1.19147 0.106136 0.0570263 -1.0939 0.0810133 0.0260967 -1.16095 0.0330529 0.044143 -1.25483 0.059537 0.006439 -1.06043 0.00163067 -0.00937919 -0.0976522 -0.107516 -0.0200426 -0.122294 -0.101137 -0.0140321 -0.0671176 -0.0756098 -0.0256203 -0.0894779 -0.0773121 -0.0317067 -0.149575 -0.0979547 -0.0175021 -0.0397021 -0.0515336 0.110184 -0.143356 -0.0489989 0.101675 -0.0909703 -0.0339604 0.09733 -0.0970823 -0.0456543 0.0913858 -0.110198 -0.0277855 0.104391 -0.161368 -0.030225 0.10023 -0.121243 -0.0352568 0.0915896 -0.122809 -0.0117415 0.0846905 -0.0742439 -0.0218126 0.120417 -0.196677 -0.0503097 -0.0212645 -0.263572 0.132132 -0.0112803 -0.201051 0.089216 -0.0176154 -0.195648 0.130816 -0.0340068 -0.255361 0.118262 -0.0398772 -0.328164 0.123282 -0.00656484 -0.259055 0.076377 -0.0511251 -0.31282 0.113707 0.00777813 -0.202576 0.0280028 -0.0277322 -0.337574 0.135156 0.205138 -1.00533 -0.00138325 0.0942763 -1.08106 -0.000234732 0.202121 -1.09885 -0.00544711 0.207534 -1.02063 -0.00157573 0.207924 -0.92517 0.00146359 0.0926315 -0.98526 0.00263422 0.20935 -0.942767 0.000386343 -0.00463442 -1.0605 0.00438755 0.204392 -0.908145 0.00296385 -0.103328 -1.00525 -0.177255 -0.046971 -1.08099 -0.0817624 -0.105371 -1.0988 -0.172608 -0.104708 -1.02062 -0.179235 -0.102239 -0.925127 -0.181097 -0.0436344 -0.985168 -0.0817685 -0.103895 -0.942806 -0.181776 0.006439 -1.06043 0.00163067 -0.0991554 -0.908022 -0.178795 -0.0175021 -0.0397021 -0.0515336 -0.00541173 -0.0105922 -0.0230546 -0.00813668 -0.0313833 -0.0528977 -0.000640407 -0.00717785 -0.0220241 9.12244e-18 9.64819e-19 -7.98369e-18 -0.000467149 -0.0298847 -0.0567797 -0.103779 -0.708342 0.164508 -0.106522 -0.808109 0.171708 -0.105085 -0.824567 0.175246 -0.105439 -0.923315 0.178771 -0.105095 -0.908432 0.175187 -0.104827 -0.938504 0.180244 -0.0815889 -0.479535 0.120895 -0.0779999 -0.371581 0.1043 -0.0892808 -0.410785 0.105925 -0.0895274 -0.306584 0.0927474 -0.0766004 -0.274644 0.0938818 -0.102607 -0.337422 0.0917138 0.096642 -0.0976969 0.0451365 0.0967492 -0.12163 0.0326008 0.071408 -0.0672712 0.0255004 0.0787473 -0.0892136 0.0158815 0.100631 -0.147708 0.0204946 0.0513822 -0.0398946 0.0105551 0.0718284 -0.223588 0.122709 0.035479 -0.214045 0.0412008 0.0547143 -0.173228 0.0923057 0.022065 -0.164423 0.0169085 0.00622251 -0.201235 -0.0309973 0.0387595 -0.128896 0.0646323 -0.101857 -0.513389 0.115757 -0.0990606 -0.607821 0.137467 -0.0927094 -0.498659 0.119949 -0.0909949 -0.590522 0.13775 -0.103779 -0.708342 0.164508 -0.0815889 -0.479535 0.120895 0.0513822 -0.0398946 0.0105551 0.0225396 -0.0107796 0.0066712 0.0495776 -0.0331625 0.0187075 0.0196253 -0.00774531 0.0101949 3.95039e-18 8.21678e-18 -2.2153e-18 0.0501655 -0.0316033 0.0272973 -0.0976255 -0.143145 -0.0711981 -0.0804774 -0.0888836 -0.0713266 -0.0883076 -0.096866 -0.0616263 -0.0697763 -0.109774 -0.0651193 -0.0784977 -0.160787 -0.075561 -0.081748 -0.119141 -0.0703021 -0.0564711 -0.12183 -0.0734105 -0.0633441 -0.0724509 -0.0650466 -0.103871 -0.19664 -0.0795569 -0.305143 -0.235815 0.0116856 -0.331077 -0.292791 0.00693485 -0.297309 -0.222285 0.00744128 -0.323392 -0.274815 0.00343072 -0.352619 -0.350746 0.00316106 -0.288263 -0.206651 0.00347974 0.00908581 -1.51739 0.0129779 -6.37104e-05 -1.45056 -0.00208194 0.0345047 -1.46038 0.0452608 0.0255423 -1.38903 0.0323582 -0.0156329 -1.37712 -0.0250792 0.0652995 -1.39738 0.086772 -0.0162716 -1.51783 0.000804168 0.0016336 -1.45068 0.000311637 -0.0564236 -1.46066 0.00666351 -0.0408382 -1.38911 0.00556288 0.0292034 -1.37724 -0.0013529 -0.107843 -1.3974 0.0128747 0.00688453 -1.51744 -0.0144122 -0.00149665 -1.45081 0.00100906 0.0221655 -1.46058 -0.0525555 0.0155015 -1.38933 -0.0383239 -0.0135938 -1.37749 0.0259724 0.0427038 -1.39764 -0.0999927 -0.114984 -0.368401 -0.00839002 -0.0415452 -0.288728 -0.0147462 -0.0429798 -0.373649 -0.0157873 0.0217547 -0.290371 -0.0234573 0.0196252 -0.215548 -0.0215623 0.0273492 -0.37957 -0.0237359 0.12521 -0.263469 -0.0474803 0.124499 -0.313756 -0.0250289 0.13156 -0.337695 -0.0436063 0.071234 -0.267134 -0.032816 0.0848851 -0.208731 -0.0350352 0.116344 -0.242278 -0.0273925 0.0196252 -0.215548 -0.0215623 0.119067 -0.283994 -0.00813094 0.120417 -0.196677 -0.0503097 0.163829 -0.297967 0.290391 0.171973 -0.324987 0.297641 0.179993 -0.389007 0.316571 0.186055 -0.417384 0.321422 0.178993 -0.350812 0.303786 0.19079 -0.48425 0.333309 -0.0465413 -0.0269454 0.0624121 -0.0565984 -0.0434223 0.0667722 -0.0548703 -0.0378199 0.061996 -0.0683492 -0.0637441 0.0693452 -0.063064 -0.0727459 0.0648133 -0.0636066 -0.0517779 0.0614179 -0.0639429 -0.0514657 -0.0614881 -0.0684545 -0.0635942 -0.0693954 -0.054961 -0.0374774 -0.0623503 -0.0564243 -0.0432393 -0.0667324 -0.0633441 -0.0724509 -0.0650466 -0.0465014 -0.02658 -0.0627541 -0.0307939 -0.0272708 -0.071885 -0.0295304 -0.0436577 -0.082951 -0.0260175 -0.0380034 -0.0787803 -0.02571 -0.063838 -0.0942972 -0.0245179 -0.0726853 -0.0879502 -0.0207397 -0.0517927 -0.0856935 0.190661 -0.70091 -0.329884 0.195752 -0.584113 -0.338065 0.194996 -0.60371 -0.338221 0.193172 -0.5031 -0.334995 0.193406 -0.485923 -0.33128 0.192654 -0.519586 -0.33715 -0.380427 -0.700613 -0.000356088 -0.390366 -0.583995 -0.000632164 -0.389778 -0.603437 0.000145704 -0.386438 -0.50294 0.000202295 -0.384151 -0.48543 -0.00165755 -0.387791 -0.519345 0.00174764 -0.00849127 -0.701125 0.039173 -0.0521731 -0.806296 0.108252 -0.00690369 -0.823462 0.028935 -0.0487219 -0.92638 0.0932515 -0.0991939 -0.908537 0.178965 -0.0031564 -0.943971 0.0168909 -0.0290882 -0.700986 -0.0270321 -0.0672621 -0.806255 -0.0998166 -0.0211303 -0.823405 -0.0208038 -0.0562424 -0.926376 -0.0893794 -0.105022 -0.908591 -0.175964 -0.0128835 -0.943833 -0.0115072 0.0379969 -0.700697 -0.0120904 0.120058 -0.805874 -0.0088342 0.0284958 -0.823069 -0.00835179 0.105494 -0.926042 -0.00448212 0.204902 -0.908239 -0.00353877 0.0162657 -0.943552 -0.00580863 0.20935 -0.942767 0.000386343 0.205887 -1.06946 -0.0015023 0.209 -1.00496 -0.000181017 0.202581 -1.12845 -0.000560906 0.196317 -1.18916 -0.00281007 0.206967 -1.06641 0.000627093 -0.103895 -0.942806 -0.181776 -0.103832 -1.06953 -0.177829 -0.104216 -1.00506 -0.181183 -0.101365 -1.12856 -0.175421 -0.100215 -1.18924 -0.168879 -0.1025 -1.06657 -0.179811 -0.0618953 -0.473658 -0.129733 -0.061606 -0.37678 -0.11509 -0.0512846 -0.371705 -0.12076 -0.0538228 -0.288326 -0.10754 -0.0667759 -0.28778 -0.100736 -0.0409569 -0.283168 -0.115442 0.059797 -0.0171094 -0.00370751 0.0600837 -0.021545 -0.000153586 0.0527705 -0.00941297 -0.000974311 0.0567149 -0.012782 0.00289126 0.0613717 -0.0251568 0.00325433 0.0426733 -0.00232849 0.00230233 0.146476 -0.475686 0.0103813 0.129358 -0.377458 0.00315669 0.130775 -0.373686 0.0164849 0.119638 -0.284479 0.00628172 0.119067 -0.283994 -0.00813094 0.121521 -0.281791 0.0213734 -0.0700649 -0.143242 0.0749947 -0.054375 -0.143981 0.0800146 -0.0542455 -0.0871117 0.0592594 -0.0400265 -0.0872902 0.0642446 -0.0409041 -0.142792 0.0866288 -0.0356304 -0.0398067 0.0397554 -3.11921e-19 3.64568e-19 4.08314e-18 -0.010012 -0.0127522 -0.0215386 -0.012435 -0.00935751 -0.0163239 -0.0233945 -0.0354103 -0.0397252 -0.0175021 -0.0397021 -0.0515336 -0.031834 -0.0299646 -0.0336096 -0.0175021 -0.0397021 -0.0515336 -0.0357051 -0.0778426 -0.0637334 -0.0233945 -0.0354103 -0.0397252 -0.0464105 -0.0709754 -0.0548368 -0.0564711 -0.12183 -0.0734105 -0.031834 -0.0299646 -0.0336096 -0.0651009 -0.508854 0.136608 -0.0729003 -0.495795 0.128252 -0.0794916 -0.605 0.147831 -0.0853913 -0.59164 0.140625 -0.0815889 -0.479535 0.120895 -0.0972835 -0.7089 0.168759 -7.44695e-18 -2.47035e-18 2.23232e-18 0.0241566 -0.0130978 0.00250777 0.0210471 -0.0106461 -0.00222717 0.0461755 -0.0359837 -0.00111746 0.0513822 -0.0398946 0.0105551 0.0461011 -0.0317345 -0.0110111 -0.0969074 -0.709264 -0.16722 -0.100943 -0.826843 -0.177918 -0.103129 -0.802555 -0.174964 -0.104484 -0.918636 -0.181196 -0.103895 -0.942806 -0.181776 -0.105521 -0.895143 -0.179765 0.193224 -0.70918 -0.000836403 0.204536 -0.826786 0.00101604 0.203008 -0.802387 -0.00234971 0.209132 -0.918529 -0.000420994 0.20935 -0.942767 0.000386343 0.208456 -0.89494 -0.00205003 -0.26383 -0.1686 -0.00422424 -0.301 -0.229016 -0.00369024 -0.285645 -0.201807 -0.0080839 -0.320344 -0.267895 -0.00711764 -0.333538 -0.29809 -0.00309798 -0.30522 -0.235785 -0.0119813 0.19011 -0.700659 0.329546 0.194888 -0.583429 0.338306 0.195315 -0.599342 0.337448 0.193422 -0.498836 0.334051 0.19079 -0.48425 0.333309 0.195333 -0.512039 0.334106 -0.0216033 -0.0514727 0.0855999 -0.0261617 -0.0626786 0.0929368 -0.0264335 -0.0374639 0.078476 -0.0297012 -0.0421524 0.0814127 -0.0237337 -0.0694431 0.0832532 -0.0310349 -0.0269577 0.071373 0.178993 -0.350812 0.303786 0.171973 -0.324987 0.297641 0.161837 -0.26318 0.273663 0.153001 -0.239943 0.265519 0.163829 -0.297967 0.290391 0.140679 -0.18678 0.237034 -0.0651009 -0.508854 0.136608 -0.0558848 -0.407068 0.123177 -0.0729003 -0.495795 0.128252 -0.0665605 -0.394394 0.114316 -0.0511251 -0.31282 0.113707 -0.0815889 -0.479535 0.120895 0.0513822 -0.0398946 0.0105551 0.0712734 -0.0789043 0.000418314 0.0461755 -0.0359837 -0.00111746 0.071843 -0.0724064 -0.0129951 0.0915896 -0.122809 -0.0117415 0.0461011 -0.0317345 -0.0110111 0.0465129 -0.0441066 0.00246563 0.0477577 -0.0431507 0.000410187 0.0325904 -0.0485166 0.000294819 0.0356184 -0.0473316 -0.000160663 0.0500357 -0.0407685 -0.00162184 0.0173205 -0.047588 0.0003514 -0.333538 -0.29809 -0.00309798 -0.343849 -0.32503 0.000209988 -0.36432 -0.389669 -0.00247555 -0.371518 -0.418025 0.000283107 -0.352619 -0.350746 0.00316106 -0.384151 -0.48543 -0.00165755 -0.0898335 -0.124382 -0.00120454 -0.0351611 -0.16802 0.00932452 -0.0366854 -0.10665 0.00335342 0.0132861 -0.144893 0.0147811 0.0200185 -0.214991 0.0209967 0.00847588 -0.0903206 0.00787974 -0.103572 -0.263472 -0.0849936 -0.0838156 -0.315535 -0.096048 -0.103247 -0.337755 -0.0924069 -0.0630526 -0.260413 -0.0448847 -0.071781 -0.202664 -0.0557988 -0.0818972 -0.243946 -0.0877989 -0.0275532 -0.204233 -0.00674405 -0.0667759 -0.28778 -0.100736 -0.103871 -0.19664 -0.0795569 -0.0321866 -0.00289162 0.0399041 -0.0298552 -0.00991306 0.0454687 -0.0360814 -0.0141724 0.0492441 -0.0232355 -0.000244378 0.0323579 -0.0323277 -0.0216155 0.0510625 -0.0416525 -0.00515915 0.0479759 0.150116 -0.50228 -0.0112821 0.148245 -0.490049 -0.000498058 0.166178 -0.602838 -0.00471972 0.162832 -0.589549 0.0036996 0.146476 -0.475686 0.0103813 0.193224 -0.70918 -0.000836403 -3.61214e-19 4.1146e-18 -2.88557e-18 -0.015107 -0.0134398 0.020097 -0.00922677 -0.0112208 0.0195651 -0.0233841 -0.0368211 0.0415895 -0.0356304 -0.0398067 0.0397554 -0.0149455 -0.0338007 0.0466119 -0.00881251 0.00562397 -0.00831861 -0.00213452 0.00553521 -0.00648205 0.0063518 0.00447177 0.0171631 0.0135786 0.00348944 0.0197449 0.0036918 0.00677408 -0.00652766 0.0245693 -0.00335154 0.0479765 -0.0845192 -0.502793 -0.124717 -0.0735821 -0.489824 -0.127694 -0.0868192 -0.602967 -0.141942 -0.0773244 -0.588993 -0.142336 -0.0618953 -0.473658 -0.129733 -0.0969074 -0.709264 -0.16722 -0.00240778 0.00572766 0.011715 -0.00418095 0.00555591 0.00505979 0.0121003 0.00454143 -0.0139989 0.0106658 0.00350542 -0.0215094 -0.00719592 0.00671279 5.83777e-05 0.029623 -0.00320624 -0.0448727 0.09733 -0.0970823 -0.0456543 0.0696068 -0.060934 -0.0259962 0.0913858 -0.110198 -0.0277855 0.071843 -0.0724064 -0.0129951 0.0461011 -0.0317345 -0.0110111 0.0915896 -0.122809 -0.0117415 -0.0511251 -0.31282 0.113707 -0.0558848 -0.407068 0.123177 -0.0398772 -0.328164 0.123282 -0.0470531 -0.424115 0.132909 -0.0651009 -0.508854 0.136608 -0.0277322 -0.337574 0.135156 -0.0969307 -1.16378 0.1737 -0.101948 -1.05366 0.17927 -0.0968984 -1.13131 0.176818 -0.102522 -1.01859 0.180143 -0.104827 -0.938504 0.180244 -0.0965052 -1.09908 0.177532 -0.0236803 -1.18824 0.0415667 -0.014346 -1.06985 0.0311592 -0.0623149 -1.14486 0.102504 -0.0531158 -1.02422 0.0942957 -0.0031564 -0.943971 0.0168909 -0.105314 -1.09959 0.172531 -0.0240519 -1.18819 -0.0414733 -0.0195907 -1.06971 -0.0280778 -0.0576377 -1.1446 -0.10575 -0.0550964 -1.02398 -0.093853 -0.0128835 -0.943833 -0.0115072 -0.0964865 -1.09923 -0.177396 0.047913 -1.18789 -0.000496739 0.0340467 -1.06942 -0.00334096 0.120376 -1.1443 0.0025044 0.108786 -1.02371 -0.00124225 0.0162657 -0.943552 -0.00580863 0.201852 -1.09893 0.0046337 -0.0883076 -0.096866 -0.0616263 -0.0572662 -0.0606093 -0.0472152 -0.0697763 -0.109774 -0.0651193 -0.0464105 -0.0709754 -0.0548368 -0.031834 -0.0299646 -0.0336096 -0.0564711 -0.12183 -0.0734105 -0.024161 -0.040353 0.0448652 -0.0215168 -0.0412628 0.045683 -0.0186703 -0.0484238 0.0325663 -0.0144125 -0.0475707 0.0285117 -0.019548 -0.0414726 0.0464908 -0.00810977 -0.0505421 0.00896636 -0.0270827 -0.0407647 -0.0438229 -0.029229 -0.042009 -0.0417211 -0.0192523 -0.0493943 -0.0321927 -0.0178767 -0.048507 -0.026634 -0.0309575 -0.0423181 -0.0403624 -0.0039506 -0.0516254 -0.0109828 -0.0230132 -0.0439088 -0.0430342 -0.0249023 -0.043202 -0.0436683 -0.0166611 -0.0485598 -0.0282304 -0.0183666 -0.0478182 -0.0308677 -0.0270827 -0.0407647 -0.0438229 -0.00873257 -0.0480079 -0.0137479 -0.0248316 -0.0430743 0.039795 -0.0242764 -0.0420757 0.0419751 -0.0166988 -0.0478851 0.0287955 -0.0179708 -0.0469538 0.031616 -0.024161 -0.040353 0.0448652 -0.00922162 -0.0472665 0.0151593 -0.332613 -1.10224 -0.00587723 -0.352509 -0.997095 -0.00538364 -0.340096 -1.06907 -0.0119402 -0.358553 -0.961547 -0.00979441 -0.36777 -0.888457 -0.00436312 -0.345054 -1.03584 -0.0171776 0.16136 -1.10244 0.290911 0.171753 -0.99729 0.307902 0.159848 -1.06932 0.300413 0.17095 -0.9618 0.315339 0.180285 -0.888633 0.320631 0.157786 -1.03617 0.307323 0.171494 -1.10275 -0.285363 0.181083 -0.997446 -0.302871 0.180533 -1.06957 -0.288805 0.1879 -0.962003 -0.305915 0.187646 -0.888894 -0.316496 0.187548 -1.03639 -0.290385 -0.018455 -0.00272407 -0.0479254 -0.0243605 -0.00957561 -0.0483897 -0.0246602 -0.0139309 -0.0558622 -0.01632 -0.000190185 -0.0365132 -0.0279873 -0.0209707 -0.0521646 -0.0207111 -0.00503868 -0.0600774 0.195483 -0.607265 -0.335785 0.196058 -0.506179 -0.332756 0.19588 -0.583519 -0.337158 0.196625 -0.525308 -0.330941 0.193406 -0.485923 -0.33128 0.189014 -0.699887 -0.329333 -0.0248316 -0.0430743 0.039795 -0.0310892 -0.0335313 0.049123 -0.0242764 -0.0420757 0.0419751 -0.0292565 -0.0322267 0.0506603 -0.0323277 -0.0216155 0.0510625 -0.024161 -0.040353 0.0448652 -0.0230132 -0.0439088 -0.0430342 -0.0275177 -0.0337018 -0.0521783 -0.0249023 -0.043202 -0.0436683 -0.0291398 -0.0318344 -0.0505562 -0.0279873 -0.0209707 -0.0521646 -0.0270827 -0.0407647 -0.0438229 0.0500357 -0.0407685 -0.00162184 0.0498767 -0.0416418 -0.00428718 0.0368525 -0.048715 -0.000186524 0.0319316 -0.047762 -0.00189417 0.0501686 -0.0416635 -0.00644404 0.0117231 -0.0507849 0.00248415 -0.0888351 -0.709059 -0.171992 -0.0946142 -0.807967 -0.178203 -0.0988952 -0.826492 -0.179235 -0.102239 -0.925127 -0.181097 -0.0991554 -0.908022 -0.178795 -0.103895 -0.942806 -0.181776 0.19365 -0.709094 0.00834837 0.201682 -0.808066 0.0065245 0.204727 -0.826513 0.003392 0.207924 -0.92517 0.00146359 0.204392 -0.908145 0.00296385 0.20935 -0.942767 0.000386343 0.0502244 -0.365004 0.10287 0.00821826 -0.280635 0.0424501 0.00806811 -0.370114 0.0445846 -0.0305474 -0.281893 -0.00709974 -0.0275532 -0.204233 -0.00674405 -0.0338491 -0.37596 -0.0118122 0.077593 -0.0271321 0.00888332 0.0855568 -0.0441567 0.0153509 0.0816197 -0.0380608 0.0163615 0.0940038 -0.0649268 0.0243888 0.0852507 -0.0742887 0.021881 0.0856529 -0.0520255 0.0245769 0.0500357 -0.0407685 -0.00162184 0.0574423 -0.0340518 0.000370743 0.0596705 -0.0297873 -0.00268344 0.0600837 -0.021545 -0.000153586 0.0613717 -0.0251568 0.00325433 0.059797 -0.0171094 -0.00370751 -0.103744 -1.06626 0.1787 -0.101641 -1.14673 0.172979 -0.10482 -1.08172 0.176634 -0.103583 -1.16239 0.16984 -0.0982486 -1.22307 0.164907 -0.105314 -1.09959 0.172531 -0.0972835 -0.7089 0.168759 -0.103511 -0.82434 0.176516 -0.100128 -0.802529 0.17714 -0.10402 -0.916989 0.180822 -0.104827 -0.938504 0.180244 -0.102255 -0.895453 0.181235 0.13156 -0.337695 -0.0436063 0.124499 -0.313756 -0.0250289 0.138434 -0.421424 -0.0253645 0.131527 -0.387449 -0.0111599 0.150116 -0.50228 -0.0112821 0.119067 -0.283994 -0.00813094 -0.103247 -0.337755 -0.0924069 -0.0838156 -0.315535 -0.096048 -0.090833 -0.421792 -0.107551 -0.0751342 -0.390024 -0.10942 -0.0845192 -0.502793 -0.124717 -0.0667759 -0.28778 -0.100736 -0.00146202 -1.06072 -0.00626324 -0.0486793 -0.985447 0.078677 -0.00016912 -0.965137 -0.0109519 -0.0491877 -0.887874 0.0738954 -0.105095 -0.908432 0.175187 0.00156626 -0.866819 -0.0169324 0.006439 -1.06043 0.00163067 -0.0436344 -0.985168 -0.0817685 0.00998214 -0.964856 0.00526587 -0.0391923 -0.887541 -0.0799771 -0.0991554 -0.908022 -0.178795 0.0145062 -0.866484 0.0100045 -0.00463442 -1.0605 0.00438755 0.0926315 -0.98526 0.00263422 -0.0095511 -0.964938 0.00562658 0.0888689 -0.887664 0.00556498 0.204392 -0.908145 0.00296385 -0.0159238 -0.866582 0.00716743 -0.0964865 -1.09923 -0.177396 -0.103101 -0.997711 -0.180165 -0.100008 -1.08202 -0.179229 -0.104502 -0.982065 -0.181355 -0.105521 -0.895143 -0.179765 -0.1025 -1.06657 -0.179811 0.201852 -1.09893 0.0046337 0.207572 -0.997454 0.000271358 0.205219 -1.08179 0.00249702 0.209311 -0.981883 -0.000354595 0.208456 -0.89494 -0.00205003 0.206967 -1.06641 0.000627093 -0.346975 -0.334049 -0.00625936 -0.36432 -0.389669 -0.00247555 -0.373569 -0.42817 -0.00481836 -0.333538 -0.29809 -0.00309798 -0.384151 -0.48543 -0.00165755 -0.357928 -0.368898 -0.00925069 -0.36777 -0.888457 -0.00436312 -0.366828 -0.900544 -0.00032452 -0.376777 -0.794165 -0.00155771 -0.375944 -0.806538 0.000977135 -0.365676 -0.91282 0.00394015 -0.380427 -0.700613 -0.000356088 0.187646 -0.888894 -0.316496 0.183757 -0.901163 -0.317593 0.189746 -0.794222 -0.325499 0.187017 -0.806462 -0.326154 0.179467 -0.913185 -0.318349 0.190661 -0.70091 -0.329884 0.180285 -0.888633 0.320631 0.183332 -0.900664 0.317799 0.187242 -0.794258 0.32703 0.189031 -0.806577 0.325025 0.186464 -0.912899 0.314678 0.19011 -0.700659 0.329546 -0.0869694 -0.357514 0.0103439 -0.0288432 -0.28307 0.0157516 -0.117314 -0.288232 0.00567622 -0.057305 -0.222268 0.00986978 0.0200185 -0.214991 0.0209967 -0.144956 -0.226489 0.000298482 0.0641975 -0.364723 -0.0946847 0.0326649 -0.279486 -0.027851 0.0346557 -0.369852 -0.028841 0.00914384 -0.280914 0.0305656 0.00777813 -0.202576 0.0280028 0.00683261 -0.375724 0.0355313 0.0852405 -0.0525918 -0.0248128 0.0943686 -0.0653858 -0.0247087 0.081617 -0.038263 -0.0168745 0.0859532 -0.044163 -0.015642 0.0846905 -0.0742439 -0.0218126 0.0778243 -0.0271467 -0.00957949 -0.0317067 -0.149575 -0.0979547 -0.0434239 -0.136097 -0.0833155 -0.0256203 -0.0894779 -0.0773121 -0.0357051 -0.0778426 -0.0637334 -0.0564711 -0.12183 -0.0734105 -0.0175021 -0.0397021 -0.0515336 -0.144956 -0.226489 0.000298482 -0.057305 -0.222268 0.00986978 -0.116414 -0.171829 -0.000238181 -0.0351611 -0.16802 0.00932452 0.0200185 -0.214991 0.0209967 -0.0898335 -0.124382 -0.00120454 0.0637664 -0.282649 0.0987333 0.035479 -0.214045 0.0412008 0.0718284 -0.223588 0.122709 0.0275529 -0.271166 0.0162572 0.00622251 -0.201235 -0.0309973 0.0540095 -0.348639 0.0729358 0.190899 -0.699793 0.328428 0.192921 -0.606984 0.336988 0.19429 -0.582709 0.338363 0.190101 -0.505393 0.335987 0.188192 -0.524885 0.335703 0.19079 -0.48425 0.333309 -0.0129412 -0.143764 0.119822 -0.0290682 -0.172498 0.105387 -0.0176154 -0.195648 0.130816 -0.019859 -0.118868 0.104645 -0.0217167 -0.0886263 0.104466 -0.0243602 -0.120545 0.0934299 -0.0237337 -0.0694431 0.0832532 -0.0409041 -0.142792 0.0866288 -0.00914869 -0.0978258 0.106821 -0.0815889 -0.479535 0.120895 -0.0665605 -0.394394 0.114316 -0.0779999 -0.371581 0.1043 -0.0631291 -0.295675 0.103179 -0.0511251 -0.31282 0.113707 -0.0766004 -0.274644 0.0938818 0.100631 -0.147708 0.0204946 0.0946616 -0.135829 0.00393937 0.0787473 -0.0892136 0.0158815 0.0712734 -0.0789043 0.000418314 0.0915896 -0.122809 -0.0117415 0.0513822 -0.0398946 0.0105551 -0.0818772 -1.26774 0.165433 -0.0810803 -1.31283 0.157071 -0.0903105 -1.21553 0.170071 -0.0893808 -1.26522 0.162532 -0.0803373 -1.35694 0.146406 -0.0969307 -1.16378 0.1737 -0.0982486 -1.22307 0.164907 -0.0975079 -1.1928 0.169866 -0.0903331 -1.29185 0.156758 -0.0893808 -1.26522 0.162532 -0.0969307 -1.16378 0.1737 -0.0803373 -1.35694 0.146406 -0.379869 -0.699759 0.000851586 -0.388291 -0.606964 -0.00165288 -0.390136 -0.583336 -0.00116255 -0.386053 -0.505998 -0.00356901 -0.3848 -0.524912 -0.00507509 -0.384151 -0.48543 -0.00165755 -0.015893 0.0103589 -0.0149365 -0.00302299 0.00796012 -0.00941944 -0.0370171 0.00260476 -0.00865916 -0.0198239 0.00429126 -0.00391838 0.0101303 0.00586068 -0.00469203 -0.0556712 -0.00395492 -0.00310765 -0.0130225 -0.0626602 0.0734679 -0.0285258 -0.0818458 0.0711365 -0.0243602 -0.120545 0.0934299 -0.0149455 -0.0338007 0.0466119 -0.0409041 -0.142792 0.0866288 -0.00914869 -0.0978258 0.106821 -0.158085 -0.0550663 0.0145433 -0.182266 -0.07701 0.00812282 -0.137448 -0.0424547 0.00936822 -0.159107 -0.0592278 0.00361008 -0.203489 -0.0978447 0.00258381 -0.115632 -0.030354 0.00475133 0.196317 -1.18916 -0.00281007 0.183795 -1.2759 -0.000368482 0.196136 -1.19266 0.00033414 0.18291 -1.28123 0.00390003 0.167475 -1.35684 0.00313689 0.195452 -1.19851 0.00367347 -0.080622 -1.35697 -0.146818 -0.0876662 -1.2814 -0.160586 -0.0918282 -1.27601 -0.159221 -0.0973707 -1.19279 -0.170272 -0.0941233 -1.1987 -0.171346 -0.100215 -1.18924 -0.168879 0.0679621 -0.0249578 -0.00965682 0.058896 -0.0339112 -0.00517981 0.0635888 -0.0214837 -0.0066593 0.0596705 -0.0297873 -0.00268344 0.0500357 -0.0407685 -0.00162184 0.059797 -0.0171094 -0.00370751 0.0836458 -1.12508 -0.171959 0.0419603 -1.09423 -0.0898955 0.0844954 -1.01987 -0.168555 0.0394887 -0.986127 -0.0830328 -0.00146202 -1.06072 -0.00626324 0.083367 -0.909367 -0.16237 -0.190557 -1.12482 0.0135403 -0.0986657 -1.09395 0.00858144 -0.187982 -1.01957 0.0111002 -0.0914305 -0.98582 0.00736296 -0.00463442 -1.0605 0.00438755 -0.181971 -0.908912 0.00899401 0.107223 -1.12478 0.158161 0.0570263 -1.0939 0.0810133 0.103842 -1.01953 0.157134 0.0523741 -0.985762 0.0753378 0.006439 -1.06043 0.00163067 0.0990287 -0.908863 0.152962 0.0664125 -0.054925 -0.144331 0.0858606 -0.0808588 -0.166565 0.0645665 -0.046815 -0.128646 0.0820425 -0.0675129 -0.149029 0.103274 -0.107407 -0.186865 0.061002 -0.0371093 -0.111342 -0.0845192 -0.502793 -0.124717 -0.0751342 -0.390024 -0.10942 -0.0735821 -0.489824 -0.127694 -0.061606 -0.37678 -0.11509 -0.0667759 -0.28778 -0.100736 -0.0618953 -0.473658 -0.129733 -0.105314 -1.09959 0.172531 -0.104186 -0.997572 0.179613 -0.10482 -1.08172 0.176634 -0.104201 -0.982055 0.181046 -0.102255 -0.895453 0.181235 -0.103744 -1.06626 0.1787 0.167475 -1.35684 0.00313689 0.183795 -1.2759 -0.000368482 0.16742 -1.35695 -0.00121409 0.183247 -1.27819 -0.00446575 0.196317 -1.18916 -0.00281007 0.165989 -1.35979 -0.00571092 -0.0876177 -1.35989 -0.141181 -0.0843982 -1.35705 -0.144628 -0.0951365 -1.27826 -0.156732 -0.0918282 -1.27601 -0.159221 -0.080622 -1.35697 -0.146818 -0.100215 -1.18924 -0.168879 0.150116 -0.50228 -0.0112821 0.131527 -0.387449 -0.0111599 0.148245 -0.490049 -0.000498058 0.129358 -0.377458 0.00315669 0.119067 -0.283994 -0.00813094 0.146476 -0.475686 0.0103813 -0.0356304 -0.0398067 0.0397554 -0.0400265 -0.0872902 0.0642446 -0.0233841 -0.0368211 0.0415895 -0.0285258 -0.0818458 0.0711365 -0.0409041 -0.142792 0.0866288 -0.0149455 -0.0338007 0.0466119 0.0209062 0.0104246 -0.00643823 0.00899745 0.00783043 0.00219155 0.0255838 0.00296872 -0.0269055 0.0121003 0.00454143 -0.0139989 -0.00240778 0.00572766 0.011715 0.029623 -0.00320624 -0.0448727 0.163829 -0.297967 0.290391 0.179993 -0.389007 0.316571 0.16811 -0.33366 0.303386 0.182792 -0.427512 0.325692 0.19079 -0.48425 0.333309 0.171362 -0.368817 0.314466 -0.0279304 -0.0217017 -0.0608661 -0.0371147 -0.0207485 -0.0625188 -0.0307939 -0.0272708 -0.071885 -0.0349824 -0.0254636 -0.054806 -0.0418251 -0.0253406 -0.0540906 -0.0230067 -0.0183175 -0.0467504 0.0688719 -0.016103 0.000933594 0.0752004 -0.03778 -0.00936342 0.0580302 -0.021005 -0.000457148 0.0636875 -0.053375 -0.0109831 0.0846905 -0.0742439 -0.0218126 0.0397237 -0.0314585 -0.00134241 0.0915896 -0.122809 -0.0117415 0.0946616 -0.135829 0.00393937 0.105969 -0.197485 -0.0104772 0.107615 -0.214653 0.00566461 0.100631 -0.147708 0.0204946 0.119067 -0.283994 -0.00813094 -0.0409041 -0.142792 0.0866288 -0.0582221 -0.207124 0.0891266 -0.0456866 -0.221578 0.100608 -0.0631291 -0.295675 0.103179 -0.0766004 -0.274644 0.0938818 -0.0511251 -0.31282 0.113707 -0.288263 -0.206651 0.00347974 -0.247328 -0.146657 0.00309085 -0.263605 -0.167977 0.00800641 -0.220747 -0.114766 0.00780902 -0.203489 -0.0978447 0.00258381 -0.235488 -0.130443 0.0134219 0.0368176 -0.128973 0.0654443 0.00517666 -0.16572 0.0291364 0.0596366 -0.177209 0.10314 0.0263665 -0.220068 0.062554 -0.0275532 -0.204233 -0.00674405 0.0853768 -0.232514 0.144982 0.0397077 -0.0313149 0.00123051 0.0638344 -0.0529825 0.0110174 0.0578977 -0.0209193 0.000459502 0.0754457 -0.0378369 0.00931376 0.0852507 -0.0742887 0.021881 0.0685378 -0.0160581 -0.000934873 -0.0279873 -0.0209707 -0.0521646 -0.0275177 -0.0337018 -0.0521783 -0.026316 -0.0236409 -0.0574264 -0.0250653 -0.035497 -0.0539303 -0.0230132 -0.0439088 -0.0430342 -0.0256886 -0.0248278 -0.0640504 -0.0323277 -0.0216155 0.0510625 -0.0310892 -0.0335313 0.049123 -0.036588 -0.0238304 0.0514817 -0.0337073 -0.0352212 0.0479099 -0.0248316 -0.0430743 0.039795 -0.0423399 -0.024894 0.053987 -0.00474553 0.0103244 0.0209554 -0.00624555 0.0077274 0.00633702 0.0108528 0.00283815 0.0353973 0.0063518 0.00447177 0.0171631 -0.00881251 0.00562397 -0.00831861 0.0245693 -0.00335154 0.0479765 0.0670024 -0.0217161 -0.00641923 0.0649355 -0.0252141 0.00264163 0.0523426 -0.0185721 -0.00360046 0.0727586 -0.020385 0.000791957 0.0680301 -0.0252122 0.00961192 0.0778243 -0.0271467 -0.00957949 0.0420803 -0.698926 0.0897355 0.0137985 -0.821903 0.0398504 0.0646964 -0.806288 0.127935 0.035931 -0.928106 0.0773481 -0.0128835 -0.943833 -0.0115072 0.0861649 -0.911894 0.167284 -0.098842 -0.698648 -0.00883249 -0.0415836 -0.821564 -0.00836443 -0.143192 -0.806025 -0.00822356 -0.0849953 -0.927777 -0.00793712 0.0162657 -0.943552 -0.00580863 -0.187922 -0.911563 -0.00934933 0.0573492 -0.699112 -0.0815386 0.0278022 -0.821949 -0.0317663 0.079028 -0.806337 -0.120187 0.0496064 -0.928128 -0.0701576 -0.0031564 -0.943971 0.0168909 0.102089 -0.911961 -0.157797 0.163042 -0.235904 0.258223 0.171669 -0.293014 0.283225 0.152245 -0.211965 0.248496 0.161837 -0.26318 0.273663 0.140679 -0.18678 0.237034 0.178993 -0.350812 0.303786 -0.0564711 -0.12183 -0.0734105 -0.0434239 -0.136097 -0.0833155 -0.0621344 -0.198683 -0.0875629 -0.048734 -0.21679 -0.0973205 -0.0317067 -0.149575 -0.0979547 -0.0667759 -0.28778 -0.100736 0.00883847 -1.65218 0.0149811 -0.00269911 -1.65537 -0.00156436 -0.00200229 -1.65522 -0.00369111 -0.0129993 -1.65526 -0.0136588 -0.0115761 -1.6571 -0.00027368 -0.0125258 -1.65576 -0.0222652 -0.0172061 -1.65242 -5.68144e-05 0.00284734 -1.65548 -0.00203244 0.00423016 -1.65507 -4.32331e-05 0.0181169 -1.65509 -0.00480819 0.00586358 -1.65722 -0.0102567 0.0251866 -1.65533 2.39237e-05 -0.0125258 -1.65576 -0.0222652 -0.00489157 -1.65514 -0.0181116 -0.00200229 -1.65522 -0.00369111 0.000366401 -1.65526 -0.00320492 0.00586358 -1.65722 -0.0102567 0.00883847 -1.65218 0.0149811 0.0251866 -1.65533 2.39237e-05 0.0180174 -1.65481 0.00457718 0.00423016 -1.65507 -4.32331e-05 0.0027112 -1.65508 0.00183725 0.00605088 -1.65721 0.00981108 -0.0172061 -1.65242 -5.68144e-05 -0.0124731 -1.65559 0.0216591 -0.0129104 -1.65508 0.0130728 -0.00187563 -1.65512 0.00342682 -0.00271792 -1.65529 0.00118323 -0.0115761 -1.6571 -0.00027368 0.00886562 -1.65225 -0.0152002 0.00886562 -1.65225 -0.0152002 0.000409396 -1.65556 0.00314 -0.00187563 -1.65512 0.00342682 -0.00486442 -1.65527 0.0178247 0.00605088 -1.65721 0.00981108 -0.0124731 -1.65559 0.0216591 -0.0115761 -1.6571 -0.00027368 -0.00269911 -1.65537 -0.00156436 -0.00293473 -1.65621 -0.000116101 0.00754991 -1.65223 0.0092243 0.00883847 -1.65218 0.0149811 0.00529652 -1.65301 4.86058e-05 0.00586358 -1.65722 -0.0102567 0.00284734 -1.65548 -0.00203244 0.00160534 -1.65621 -0.00270255 -0.0116462 -1.65241 0.00167551 -0.0172061 -1.65242 -5.68144e-05 -0.00238035 -1.65286 0.00438943 -0.00238035 -1.65286 0.00438943 0.00431333 -1.65202 0.0108959 0.00160534 -1.65621 -0.00270255 0.000366401 -1.65526 -0.00320492 0.00883847 -1.65218 0.0149811 0.00586358 -1.65722 -0.0102567 -0.00220554 -1.65299 -0.00453657 -0.0116078 -1.65192 -0.00197551 0.00173386 -1.65624 0.00241474 0.0027112 -1.65508 0.00183725 -0.0172061 -1.65242 -5.68144e-05 0.00605088 -1.65721 0.00981108 0.00529652 -1.65301 4.86058e-05 0.00760002 -1.65206 -0.00915382 -0.00293473 -1.65621 -0.000116101 -0.00271792 -1.65529 0.00118323 0.00886562 -1.65225 -0.0152002 -0.0115761 -1.6571 -0.00027368 0.00605088 -1.65721 0.00981108 0.000409396 -1.65556 0.00314 0.00173386 -1.65624 0.00241474 0.00456995 -1.65237 -0.0111255 0.00886562 -1.65225 -0.0152002 -0.00220554 -1.65299 -0.00453657 0.174029 -1.1118 0.280975 0.167686 -1.10612 0.286141 0.158405 -1.2018 0.261744 0.151128 -1.19754 0.267326 0.16136 -1.10244 0.290911 0.139817 -1.28586 0.239977 -0.330311 -1.11175 0.0100614 -0.331628 -1.106 0.00198583 -0.305844 -1.20169 0.00614694 -0.307056 -1.19736 -0.00294963 -0.332613 -1.10224 -0.00587723 -0.27767 -1.28564 0.000906636 0.156601 -1.11206 -0.291172 0.164219 -1.10637 -0.288356 0.147734 -1.20204 -0.2681 0.15619 -1.19777 -0.264645 0.171494 -1.10275 -0.285363 0.138149 -1.28609 -0.24113 0.0337203 0.00917329 0.013618 0.0143559 0.00758781 0.00856123 0.0372451 0.00267696 0.00744327 0.022772 0.00404344 0.00313107 -0.00409112 0.00574732 0.00393208 0.0426733 -0.00232849 0.00230233 -0.040381 -0.0147129 -0.0589193 -0.0351038 -0.0234027 -0.0694722 -0.0371147 -0.0207485 -0.0625188 -0.0353187 -0.0154749 -0.0590814 -0.0307939 -0.0272708 -0.071885 -0.0418251 -0.0253406 -0.0540906 -0.365676 -0.91282 0.00394015 -0.351068 -1.0087 0.000124139 -0.349989 -1.01423 0.00655693 -0.331628 -1.106 0.00198583 -0.332613 -1.10224 -0.00587723 -0.330311 -1.11175 0.0100614 0.179467 -0.913185 -0.318349 0.175506 -1.00906 -0.304194 0.169438 -1.01457 -0.306301 0.164219 -1.10637 -0.288356 0.171494 -1.10275 -0.285363 0.156601 -1.11206 -0.291172 0.186464 -0.912899 0.314678 0.175811 -1.00884 0.303913 0.180856 -1.01429 0.299771 0.167686 -1.10612 0.286141 0.16136 -1.10244 0.290911 0.174029 -1.1118 0.280975 -0.0306989 -0.0144172 0.0643431 -0.0422124 -0.0231344 0.0647221 -0.0355712 -0.0203182 0.0632005 -0.0333323 -0.0155779 0.060098 -0.0465413 -0.0269454 0.0624121 -0.0255637 -0.0247783 0.0635778 0.169691 -0.298359 -0.287579 0.184345 -0.390023 -0.314338 0.178924 -0.334058 -0.297648 0.190924 -0.428354 -0.321354 0.193406 -0.485923 -0.33128 0.18694 -0.369146 -0.305743 -0.36777 -0.888457 -0.00436312 -0.352509 -0.997095 -0.00538364 -0.366828 -0.900544 -0.00032452 -0.351068 -1.0087 0.000124139 -0.332613 -1.10224 -0.00587723 -0.365676 -0.91282 0.00394015 0.180285 -0.888633 0.320631 0.171753 -0.99729 0.307902 0.183332 -0.900664 0.317799 0.175811 -1.00884 0.303913 0.16136 -1.10244 0.290911 0.186464 -0.912899 0.314678 0.187646 -0.888894 -0.316496 0.181083 -0.997446 -0.302871 0.183757 -0.901163 -0.317593 0.175506 -1.00906 -0.304194 0.171494 -1.10275 -0.285363 0.179467 -0.913185 -0.318349 -0.0354199 -0.0153259 0.0589002 -0.029938 -0.0354592 0.0694025 -0.0291731 -0.0174247 0.0484692 -0.0226859 -0.0468327 0.0578472 -0.0237337 -0.0694431 0.0832532 -0.0194103 -0.023547 0.0305889 -7.85666e-19 -2.81323e-18 4.48159e-18 4.63152e-19 -2.81881e-18 -7.50612e-18 7.37438e-20 4.78793e-19 4.65595e-19 -7.51632e-19 2.94276e-18 -9.37689e-19 -3.11921e-19 3.64568e-19 4.08314e-18 1.32948e-18 -1.71888e-18 1.09629e-18 -9.76386e-19 1.88432e-18 1.23102e-20 2.25954e-18 -2.9895e-19 1.37044e-18 -8.37236e-19 2.26806e-18 -1.61627e-19 2.60561e-18 1.01285e-18 -1.09597e-17 -3.61214e-19 4.1146e-18 -2.88557e-18 7.21315e-19 3.25471e-18 -1.49136e-18 -1.02237e-17 -8.7622e-18 -3.38871e-18 1.76125e-17 9.33192e-18 9.23648e-18 -4.14046e-18 -8.19309e-18 -5.95486e-19 -7.37237e-18 -2.55977e-18 -2.81667e-18 -7.44695e-18 -2.47035e-18 2.23232e-18 -2.81504e-18 4.67621e-18 1.10142e-18 -0.00961186 -1.63721 0.0165633 -0.0269547 -1.64667 0.00445339 -0.0395818 -1.63693 0.00619521 -0.0377025 -1.6456 -7.9556e-05 -0.0172061 -1.65242 -5.68144e-05 -0.0547084 -1.63636 0.000223903 0.0274381 -1.63643 0.0467898 0.019148 -1.64546 0.032674 0.0143845 -1.63687 0.0371771 0.00952702 -1.6465 0.0254982 0.00883847 -1.65218 0.0149811 -0.00961186 -1.63721 0.0165633 0.0194538 -1.63733 -0.000114383 0.0175086 -1.64661 0.0209221 0.0252471 -1.6369 0.0309539 0.019148 -1.64546 0.032674 0.00883847 -1.65218 0.0149811 0.0274381 -1.63643 0.0467898 -0.0547084 -1.63636 0.000223903 -0.0271922 -1.64664 -0.00398149 -0.0392908 -1.63736 -0.0064855 -0.00638659 -1.64617 -0.0113926 -0.00220554 -1.65299 -0.00453657 -0.00951109 -1.63699 -0.0170261 0.0277742 -1.63603 -0.0478526 0.019314 -1.64534 -0.0333337 0.0252181 -1.63685 -0.0307541 0.0176053 -1.64648 -0.0208356 0.00886562 -1.65225 -0.0152002 0.0194538 -1.63733 -0.000114383 -0.00951109 -1.63699 -0.0170261 0.00966973 -1.64662 -0.0255785 0.0143449 -1.63693 -0.0371452 0.019314 -1.64534 -0.0333337 0.00886562 -1.65225 -0.0152002 0.0277742 -1.63603 -0.0478526 -0.00238035 -1.65286 0.00438943 -0.0116462 -1.65241 0.00167551 -0.00637499 -1.64627 0.0110411 -0.0269547 -1.64667 0.00445339 -0.0172061 -1.65242 -5.68144e-05 -0.00961186 -1.63721 0.0165633 -0.00961186 -1.63721 0.0165633 0.00952702 -1.6465 0.0254982 -0.00637499 -1.64627 0.0110411 0.00431333 -1.65202 0.0108959 0.00883847 -1.65218 0.0149811 -0.00238035 -1.65286 0.00438943 0.00529652 -1.65301 4.86058e-05 0.00754991 -1.65223 0.0092243 0.0130123 -1.64643 -0.000132933 0.0175086 -1.64661 0.0209221 0.00883847 -1.65218 0.0149811 0.0194538 -1.63733 -0.000114383 -0.0172061 -1.65242 -5.68144e-05 -0.0116078 -1.65192 -0.00197551 -0.0377025 -1.6456 -7.9556e-05 -0.0271922 -1.64664 -0.00398149 -0.00220554 -1.65299 -0.00453657 -0.0547084 -1.63636 0.000223903 0.0194538 -1.63733 -0.000114383 0.0176053 -1.64648 -0.0208356 0.0130123 -1.64643 -0.000132933 0.00760002 -1.65206 -0.00915382 0.00886562 -1.65225 -0.0152002 0.00529652 -1.65301 4.86058e-05 -0.00220554 -1.65299 -0.00453657 0.00456995 -1.65237 -0.0111255 -0.00638659 -1.64617 -0.0113926 0.00966973 -1.64662 -0.0255785 0.00886562 -1.65225 -0.0152002 -0.00951109 -1.63699 -0.0170261 0.0426733 -0.00232849 0.00230233 0.0567149 -0.012782 0.00289126 0.0513382 -0.00434386 0.00702087 0.0624832 -0.015708 0.00714682 0.0613717 -0.0251568 0.00325433 0.0624293 -0.00521173 0.0120895 -8.37236e-19 2.26806e-18 -1.61627e-19 2.25954e-18 -2.9895e-19 1.37044e-18 1.57515e-18 1.70794e-18 -4.37678e-19 -2.29835e-18 -1.26753e-18 -2.75079e-19 -3.61214e-19 4.1146e-18 -2.88557e-18 -2.83328e-18 2.14343e-18 1.30416e-18 -2.81504e-18 4.67621e-18 1.10142e-18 -7.37237e-18 -2.55977e-18 -2.81667e-18 2.16402e-18 5.11534e-18 -6.62957e-19 1.51801e-18 -1.93242e-18 2.10689e-18 -7.44695e-18 -2.47035e-18 2.23232e-18 -4.9125e-18 -5.50426e-19 -1.44176e-18 -0.0310349 -0.0269577 0.071373 -0.0370472 -0.0204184 0.0623817 -0.0282275 -0.0215732 0.0609412 -0.034473 -0.0251299 0.0547233 -0.0423399 -0.024894 0.053987 -0.0229552 -0.018801 0.0471849 -2.88634e-18 1.95125e-18 1.52896e-18 -0.00789964 -0.0316722 -0.0101384 1.88273e-18 1.60204e-18 -6.35447e-18 -0.00678454 -0.0252863 -0.0107465 -0.00873257 -0.0480079 -0.0137479 1.32948e-18 -1.71888e-18 1.09629e-18 -0.0903008 -0.126202 0.000756184 -0.0356169 -0.169531 -0.00970469 -0.12912 -0.176578 0.000808423 -0.0693105 -0.227009 -0.00911384 0.0196252 -0.215548 -0.0215623 -0.171878 -0.234754 0.00126141 -0.0178093 -0.0252351 0.0323559 -0.0409836 -0.0494974 0.050649 -0.0278473 -0.0182984 0.0496251 -0.0464348 -0.0371323 0.0616005 -0.063064 -0.0727459 0.0648133 -0.0333323 -0.0155779 0.060098 -0.0333285 -0.0155542 -0.0603166 -0.0464405 -0.0370187 -0.0618003 -0.0278353 -0.0182235 -0.0498633 -0.0408698 -0.0494428 -0.0507541 -0.0633441 -0.0724509 -0.0650466 -0.0178786 -0.0251175 -0.0326548 -0.0195641 -0.119469 -0.105753 -0.0129997 -0.12557 -0.0716431 -0.0125329 -0.20221 -0.0925556 -0.0245179 -0.0726853 -0.0879502 0.00622251 -0.201235 -0.0309973 -0.0173393 -0.196893 -0.128906 -0.0423399 -0.024894 0.053987 -0.0370472 -0.0204184 0.0623817 -0.0404668 -0.0145635 0.0587225 -0.0350047 -0.0229426 0.0687608 -0.0310349 -0.0269577 0.071373 -0.0354199 -0.0153259 0.0589002 1.3429e-18 5.9096e-18 -1.40364e-18 3.67865e-18 -2.29953e-18 3.95781e-18 -1.69794e-18 -1.42035e-18 1.87763e-18 -7.51632e-19 2.94276e-18 -9.37689e-19 -3.11921e-19 3.64568e-19 4.08314e-18 1.32948e-18 -1.71888e-18 1.09629e-18 -2.81504e-18 4.67621e-18 1.10142e-18 0.0132687 -0.0257134 9.13237e-05 -2.11316e-19 -1.00163e-17 -2.15831e-18 0.0133349 -0.031924 0.00136674 0.0173205 -0.047588 0.0003514 2.47439e-18 -3.07137e-18 -2.18657e-19 -8.37236e-19 2.26806e-18 -1.61627e-19 -0.00697552 -0.0256566 0.0116315 4.52645e-19 -7.60763e-19 5.6589e-19 -0.00806878 -0.0316887 0.0110251 -0.00922162 -0.0472665 0.0151593 7.93926e-20 3.41236e-18 -4.5788e-19 -3.18406e-19 1.06521e-18 -3.70227e-20 0.0137816 -0.0325895 -0.00100571 -1.64262e-17 -1.08027e-17 -1.81147e-18 0.0132687 -0.0257134 9.13237e-05 0.0173205 -0.047588 0.0003514 -2.81504e-18 4.67621e-18 1.10142e-18 1.69863e-18 -2.49677e-18 -1.59777e-18 -0.00620059 -0.0325082 0.0126729 -1.70832e-18 -2.14063e-18 2.16326e-18 -0.00697552 -0.0256566 0.0116315 -0.00922162 -0.0472665 0.0151593 -8.37236e-19 2.26806e-18 -1.61627e-19 0.196317 -1.18916 -0.00281007 0.205887 -1.06946 -0.0015023 0.200729 -1.14416 -0.00479701 0.207534 -1.02063 -0.00157573 0.20935 -0.942767 0.000386343 0.202121 -1.09885 -0.00544711 -0.100215 -1.18924 -0.168879 -0.103832 -1.06953 -0.177829 -0.104139 -1.14418 -0.171732 -0.104708 -1.02062 -0.179235 -0.103895 -0.942806 -0.181776 -0.105371 -1.0988 -0.172608 -0.0310349 -0.0269577 0.071373 -0.0297012 -0.0421524 0.0814127 -0.0350047 -0.0229426 0.0687608 -0.029938 -0.0354592 0.0694025 -0.0237337 -0.0694431 0.0832532 -0.0354199 -0.0153259 0.0589002 -0.203389 -0.525988 -0.00409115 -0.281302 -0.444412 0.001981 -0.158021 -0.445755 -0.00596081 -0.230554 -0.37004 0.000728798 -0.357673 -0.368842 0.00878171 -0.114984 -0.368401 -0.00839002 -0.0293074 -0.0186568 0.0428705 -0.0300378 -0.0249749 0.057041 -0.038727 -0.0213339 0.0544197 -0.0355712 -0.0203182 0.0632005 -0.0255637 -0.0247783 0.0635778 -0.0465413 -0.0269454 0.0624121 -0.0465014 -0.02658 -0.0627541 -0.0354601 -0.0203738 -0.063573 -0.0387475 -0.0210278 -0.0544431 -0.0301003 -0.0247136 -0.0570884 -0.0256886 -0.0248278 -0.0640504 -0.0290992 -0.0179967 -0.042651 1.32948e-18 -1.71888e-18 1.09629e-18 -0.00678454 -0.0252863 -0.0107465 -1.03531e-18 -3.38456e-18 -4.00023e-18 -0.00580318 -0.0323473 -0.0115751 -0.00873257 -0.0480079 -0.0137479 -6.55015e-18 4.64091e-18 5.19029e-18 0.0997815 -0.120922 0.0349847 0.0645768 -0.131356 0.0238655 0.0858729 -0.209327 0.0353322 0.0852507 -0.0742887 0.021881 0.0200185 -0.214991 0.0209967 0.119775 -0.196248 0.048669 0.0981958 -0.524452 0.177646 0.142561 -0.443726 0.24223 0.0738569 -0.443238 0.139099 0.11598 -0.368426 0.198689 0.186764 -0.368938 0.305239 0.0502244 -0.365004 0.10287 0.105351 -0.524426 -0.174017 0.138963 -0.443652 -0.244706 0.0840053 -0.442767 -0.133328 0.114469 -0.368171 -0.199765 0.171344 -0.368869 -0.314476 0.0641975 -0.364723 -0.0946847 0.0521001 -0.0186489 0.0041198 0.0646338 -0.0250246 -0.0024598 0.0668636 -0.0214163 0.00640662 0.0726401 -0.0203531 -0.000738807 0.0679621 -0.0249578 -0.00965682 0.077593 -0.0271321 0.00888332 -0.0166222 -0.0751801 0.0583252 -0.0118168 -0.12335 0.067341 0.00325821 -0.13232 0.0241173 -0.0237337 -0.0694431 0.0832532 0.00777813 -0.202576 0.0280028 -0.00272583 -0.079311 0.0207459 -0.018568 -0.0241922 -0.0302508 -0.0231132 -0.0491388 -0.0603678 -0.0288247 -0.0178128 -0.0484612 -0.0300505 -0.0371272 -0.0714701 -0.0245179 -0.0726853 -0.0879502 -0.0353187 -0.0154749 -0.0590814 -0.171878 -0.234754 0.00126141 -0.144819 -0.298008 -0.00386391 -0.2599 -0.299743 0.00538899 -0.230554 -0.37004 0.000728798 -0.114984 -0.368401 -0.00839002 -0.357673 -0.368842 0.00878171 -0.0256886 -0.0248278 -0.0640504 -0.0354601 -0.0203738 -0.063573 -0.0307169 -0.0145731 -0.0645988 -0.0422181 -0.023025 -0.0649929 -0.0465014 -0.02658 -0.0627541 -0.0333285 -0.0155542 -0.0603166 -0.171878 -0.234754 0.00126141 -0.0693105 -0.227009 -0.00911384 -0.144819 -0.298008 -0.00386391 -0.0415452 -0.288728 -0.0147462 0.0196252 -0.215548 -0.0215623 -0.114984 -0.368401 -0.00839002 0.0536769 -0.0788897 -0.014133 0.0641536 -0.13157 -0.0243518 0.0112174 -0.139308 -0.0141084 0.0846905 -0.0742439 -0.0218126 0.0196252 -0.215548 -0.0215623 0.00514035 -0.081038 -0.00603937 -0.0333323 -0.0155779 0.060098 -0.0464348 -0.0371323 0.0616005 -0.0422124 -0.0231344 0.0647221 -0.0565984 -0.0434223 0.0667722 -0.063064 -0.0727459 0.0648133 -0.0465413 -0.0269454 0.0624121 -0.0465014 -0.02658 -0.0627541 -0.0564243 -0.0432393 -0.0667324 -0.0422181 -0.023025 -0.0649929 -0.0464405 -0.0370187 -0.0618003 -0.0633441 -0.0724509 -0.0650466 -0.0333285 -0.0155542 -0.0603166 0.0832638 -0.232511 -0.146422 0.0747114 -0.294977 -0.121626 0.124466 -0.298566 -0.226219 0.114469 -0.368171 -0.199765 0.0641975 -0.364723 -0.0946847 0.171344 -0.368869 -0.314476 0.0853768 -0.232514 0.144982 0.0263665 -0.220068 0.062554 0.0682117 -0.295187 0.125289 0.00821826 -0.280635 0.0424501 -0.0275532 -0.204233 -0.00674405 0.0502244 -0.365004 0.10287 -0.0353187 -0.0154749 -0.0590814 -0.0300505 -0.0371272 -0.0714701 -0.0351038 -0.0234027 -0.0694722 -0.0295304 -0.0436577 -0.082951 -0.0245179 -0.0726853 -0.0879502 -0.0307939 -0.0272708 -0.071885 0.0685378 -0.0160581 -0.000934873 0.0754457 -0.0378369 0.00931376 0.0770753 -0.0234322 0.00421876 0.0855568 -0.0441567 0.0153509 0.0852507 -0.0742887 0.021881 0.077593 -0.0271321 0.00888332 0.0853768 -0.232514 0.144982 0.0682117 -0.295187 0.125289 0.133836 -0.298562 0.220503 0.11598 -0.368426 0.198689 0.0502244 -0.365004 0.10287 0.186764 -0.368938 0.305239 0.0680301 -0.0252122 0.00961192 0.0727586 -0.020385 0.000791957 0.071264 -0.0146092 0.0055564 0.0774171 -0.0235132 -0.00443754 0.0778243 -0.0271467 -0.00957949 0.0688719 -0.016103 0.000933594 0.0685378 -0.0160581 -0.000934873 0.0770753 -0.0234322 0.00421876 0.0711036 -0.0145155 -0.00540708 0.0726401 -0.0203531 -0.000738807 0.077593 -0.0271321 0.00888332 0.0679621 -0.0249578 -0.00965682 0.0915896 -0.122809 -0.0117415 0.105969 -0.197485 -0.0104772 0.104391 -0.161368 -0.030225 0.116344 -0.242278 -0.0273925 0.119067 -0.283994 -0.00813094 0.120417 -0.196677 -0.0503097 -0.0176154 -0.195648 0.130816 -0.0290682 -0.172498 0.105387 -0.0340068 -0.255361 0.118262 -0.0456866 -0.221578 0.100608 -0.0409041 -0.142792 0.0866288 -0.0511251 -0.31282 0.113707 0.0832638 -0.232511 -0.146422 0.041235 -0.219061 -0.0537954 0.0747114 -0.294977 -0.121626 0.0326649 -0.279486 -0.027851 0.00777813 -0.202576 0.0280028 0.0641975 -0.364723 -0.0946847 0.0778243 -0.0271467 -0.00957949 0.0859532 -0.044163 -0.015642 0.0774171 -0.0235132 -0.00443754 0.0752004 -0.03778 -0.00936342 0.0846905 -0.0742439 -0.0218126 0.0688719 -0.016103 0.000933594 -0.0564711 -0.12183 -0.0734105 -0.0621344 -0.198683 -0.0875629 -0.0784977 -0.160787 -0.075561 -0.0818972 -0.243946 -0.0877989 -0.0667759 -0.28778 -0.100736 -0.103871 -0.19664 -0.0795569 -0.0439243 -0.0771009 -0.0456223 -0.0221612 -0.133521 -0.00928246 -0.0163417 -0.0794888 -0.0130392 -0.0548481 -0.125995 -0.0462793 -0.0275532 -0.204233 -0.00674405 -0.0633441 -0.0724509 -0.0650466 0.00270926 -0.132294 -0.0255811 -0.0170545 -0.0773009 -0.0611582 -0.00262347 -0.0794095 -0.0206728 -0.0129997 -0.12557 -0.0716431 -0.0245179 -0.0726853 -0.0879502 0.00622251 -0.201235 -0.0309973 0.00847588 -0.0903206 0.00787974 0.0132861 -0.144893 0.0147811 0.0557457 -0.0830572 0.0151483 0.0645768 -0.131356 0.0238655 0.0200185 -0.214991 0.0209967 0.0852507 -0.0742887 0.021881 -0.071781 -0.202664 -0.0557988 -0.0548481 -0.125995 -0.0462793 -0.081748 -0.119141 -0.0703021 -0.0275532 -0.204233 -0.00674405 -0.0633441 -0.0724509 -0.0650466 -0.103871 -0.19664 -0.0795569 0.00790768 -0.102162 -0.0227636 -0.0232073 -0.132374 0.0105748 -0.0161805 -0.0794295 0.0123119 0.00375774 -0.164377 -0.0272577 -0.0301064 -0.201052 0.0102778 0.0369433 -0.128832 -0.0656839 0.0705744 -0.223541 -0.12334 0.0528906 -0.173125 -0.0933141 0.100383 -0.17589 -0.160446 0.0814834 -0.130735 -0.127679 0.0369433 -0.128832 -0.0656839 0.129859 -0.130368 -0.197273 0.129859 -0.130368 -0.197273 0.114447 -0.105968 -0.17996 0.132939 -0.150791 -0.213432 0.117106 -0.121907 -0.194427 0.098177 -0.0827852 -0.160702 0.135322 -0.169115 -0.226969 0.0862687 -0.272408 -0.149537 0.132973 -0.279446 -0.217804 0.102852 -0.325194 -0.176846 0.115466 -0.230561 -0.188018 0.163082 -0.235791 -0.25852 0.0705744 -0.223541 -0.12334 0.169691 -0.298359 -0.287579 0.171916 -0.325203 -0.298182 0.184345 -0.390023 -0.314338 0.185654 -0.418366 -0.321881 0.173678 -0.350919 -0.307132 0.193406 -0.485923 -0.33128 -0.0161805 -0.0794295 0.0123119 -0.0440513 -0.0773983 0.0454233 -0.0176702 -0.0480261 0.0230249 -0.0409836 -0.0494974 0.050649 -0.063064 -0.0727459 0.0648133 -0.0178093 -0.0252351 0.0323559 0.0705744 -0.223541 -0.12334 0.0178272 -0.213899 -0.0510346 0.0528906 -0.173125 -0.0933141 0.00375774 -0.164377 -0.0272577 -0.0301064 -0.201052 0.0102778 0.0369433 -0.128832 -0.0656839 0.147342 -0.179415 -0.229179 0.100383 -0.17589 -0.160446 0.129859 -0.130368 -0.197273 0.132939 -0.150791 -0.213432 0.149784 -0.202163 -0.243802 0.115466 -0.230561 -0.188018 0.135322 -0.169115 -0.226969 0.0705744 -0.223541 -0.12334 0.163082 -0.235791 -0.25852 0.169691 -0.298359 -0.287579 0.166468 -0.267994 -0.274124 0.15365 -0.229204 -0.259265 0.149784 -0.202163 -0.243802 0.163082 -0.235791 -0.25852 0.135322 -0.169115 -0.226969 0.0537647 -0.282748 -0.104376 0.0178272 -0.213899 -0.0510346 0.0705744 -0.223541 -0.12334 0.000276199 -0.271431 -0.0317388 -0.0301064 -0.201052 0.0102778 0.0363761 -0.348852 -0.0829537 0.0386497 -0.128722 -0.0646074 0.022876 -0.164577 -0.018847 0.0598549 -0.177073 -0.103207 0.041235 -0.219061 -0.0537954 0.00777813 -0.202576 0.0280028 0.0832638 -0.232511 -0.146422 0.100975 -0.0955298 -0.174331 0.117106 -0.121907 -0.194427 0.098177 -0.0827852 -0.160702 0.119871 -0.137157 -0.207566 0.135322 -0.169115 -0.226969 0.103274 -0.107407 -0.186865 -0.0809794 -0.119197 0.0696258 -0.0549498 -0.125251 0.0469466 -0.0735236 -0.201781 0.0570845 -0.063064 -0.0727459 0.0648133 -0.0301064 -0.201052 0.0102778 -0.102224 -0.196398 0.0793039 -0.0354029 -0.376869 0.0141771 -0.0328782 -0.280786 0.0102315 0.000508712 -0.362249 -0.0340246 0.000276199 -0.271431 -0.0317388 -0.0301064 -0.201052 0.0102778 0.0363761 -0.348852 -0.0829537 0.173678 -0.350919 -0.307132 0.171916 -0.325203 -0.298182 0.158575 -0.274768 -0.282125 0.15611 -0.25132 -0.270915 0.169691 -0.298359 -0.287579 0.140576 -0.206517 -0.251881 0.00855296 -0.534837 -0.0420432 0.0231345 -0.436935 -0.064819 0.0522591 -0.513748 -0.107575 0.0657989 -0.420025 -0.126615 0.0363761 -0.348852 -0.0829537 0.0964437 -0.493613 -0.173938 0.140576 -0.206517 -0.251881 0.138217 -0.188198 -0.240021 0.122465 -0.152572 -0.22035 0.119871 -0.137157 -0.207566 0.135322 -0.169115 -0.226969 0.103274 -0.107407 -0.186865 -0.0354029 -0.376869 0.0141771 0.000508712 -0.362249 -0.0340246 -0.0146663 -0.45423 -0.0115289 0.0231345 -0.436935 -0.064819 0.0363761 -0.348852 -0.0829537 0.00855296 -0.534837 -0.0420432 -0.0440513 -0.0773983 0.0454233 -0.0549498 -0.125251 0.0469466 -0.063064 -0.0727459 0.0648133 -0.0232073 -0.132374 0.0105748 -0.0301064 -0.201052 0.0102778 -0.0161805 -0.0794295 0.0123119 0.0846905 -0.0742439 -0.0218126 0.10023 -0.121243 -0.0352568 0.0641536 -0.13157 -0.0243518 0.0848851 -0.208731 -0.0350352 0.0196252 -0.215548 -0.0215623 0.120417 -0.196677 -0.0503097 0.00777813 -0.202576 0.0280028 -0.0118168 -0.12335 0.067341 -0.0112803 -0.201051 0.089216 -0.019859 -0.118868 0.104645 -0.0237337 -0.0694431 0.0832532 -0.0176154 -0.195648 0.130816
